time,disp_x,mises,pe_eff,peeff,s_vm,strain_x,strain_xx,stress_x,stress_xx
0,0,0,0,0,0,0,0,0,0
0.005,0.00025,0.02099999999994,0,0,0.021000000000026,0.00010000000000002,9.9999999999762e-05,0.020999999999972,0.020999999999965
0.01,0.0005,0.04199999999994,0,0,0.042000000000026,0.00020000000000002,0.00019999999999976,0.041999999999972,0.041999999999965
0.015,0.00075,0.06299999999994,0,0,0.063000000000026,0.00030000000000002,0.00029999999999976,0.062999999999972,0.062999999999965
0.02,0.001,0.08399999999994,0,0,0.084000000000026,0.00040000000000002,0.00039999999999976,0.083999999999972,0.083999999999965
0.025,0.00125,0.10499999999994,0,0,0.10500000000003,0.00050000000000002,0.00049999999999976,0.10499999999997,0.10499999999996
0.03,0.0015,0.12599999999994,0,0,0.12600000000003,0.00060000000000002,0.00059999999999976,0.12599999999997,0.12599999999997
0.035,0.00175,0.14699999999994,0,0,0.14700000000003,0.00070000000000002,0.00069999999999976,0.14699999999997,0.14699999999996
0.04,0.002,0.16799999999994,0,0,0.16800000000003,0.00080000000000002,0.00079999999999976,0.16799999999997,0.16799999999996
0.045,0.00225,0.18899999999994,0,0,0.18900000000003,0.00090000000000002,0.00089999999999976,0.18899999999997,0.18899999999996
0.05,0.0025,0.20999999999994,0,0,0.21000000000003,0.001,0.00099999999999976,0.20999999999997,0.20999999999996
0.055,0.00275,0.23100000049895,0,0,0.23099999987961,0.0010999999981201,0.0011000000025711,0.23099999919365,0.23100000060143
0.06,0.003,0.2501818181809,8.6580086144836e-06,8.6580085673749e-06,0.25018181817992,0.0011999999998979,0.0011999999999522,0.25018181817864,0.25018181818097
0.065,0.00325,0.25209090868197,9.9567080093874e-05,9.9567074421742e-05,0.25209090856286,0.0012999999753994,0.0012999999787734,0.252090910169,0.25209090878379
0.07,0.0035,0.25399999958737,0.00019047617082722,0.00019047616474948,0.25399999945974,0.0013999999748019,0.0013999999785871,0.25400000108793,0.2539999996929
0.075,0.00375,0.25590909049305,0.00028138526157363,0.0002813852550975,0.25590909035705,0.0014999999742245,0.0014999999784147,0.25590909200609,0.25590909060198
0.08,0.004,0.25781818139898,0.00037229435233259,0.00037229434546536,0.25781818125477,0.0015999999736668,0.0015999999782555,0.2578181829236,0.25781818151108
0.085,0.00425,0.25972727230517,0.00046320344310318,0.00046320343585176,0.25972727215289,0.0016999999731276,0.0016999999781087,0.25972727384047,0.25972727242017
0.09,0.0045,0.26163636321158,0.00055411253388486,0.000554112526256,0.26163636305138,0.0017999999726062,0.0017999999779737,0.26163636475679,0.26163636332927
0.095,0.00475,0.2635454541182,0.00064502162467611,0.00064502161667639,0.2635454539502,0.0018999999721009,0.0018999999778488,0.26354545567255,0.26354545423835
0.1,0.005,0.26545454502501,0.00073593071547662,0.00073593070711275,0.26545454484937,0.0019999999716117,0.0019999999777337,0.26545454658789,0.26545454514744
0.105,0.00525,0.26736363593198,0.0008268398062848,0.0008268397975629,0.26736363574882,0.0020999999711362,0.0020999999776267,0.26736363750275,0.26736363605651
0.11,0.0055,0.26927272683914,0.0009177488971018,0.00091774888802821,0.26927272664859,0.0021999999706761,0.0021999999775291,0.26927272841723,0.26927272696562
0.115,0.00575,0.27118181774644,0.0010086579879256,0.0010086579785063,0.27118181754863,0.0022999999702288,0.0022999999774387,0.27118181933134,0.27118181787471
0.12,0.006,0.27309090865387,0.0010995670787557,0.0010995670689967,0.27309090844893,0.0023999999697939,0.0023999999773549,0.27309091024515,0.27309090878381
0.125,0.00625,0.27499999956144,0.0011904761695924,0.0011904761594996,0.27499999934949,0.0024999999693717,0.0024999999772782,0.27500000115862,0.27499999969289
0.13,0.0065,0.27690909046912,0.0012813852604341,0.0012813852500133,0.27690909025028,0.0025999999689604,0.0025999999772068,0.27690909207184,0.27690909060198
0.135,0.00675,0.27881818137692,0.0013722943512818,0.0013722943405383,0.27881818115131,0.0026999999685607,0.0026999999771417,0.27881818298479,0.27881818151108
0.14,0.007,0.28072727228481,0.0014632034421336,0.001463203431073,0.28072727205253,0.0027999999681707,0.0027999999770809,0.28072727389749,0.28072727242015
0.145,0.00725,0.2826363631928,0.0015541125329903,0.001554112521618,0.28263636295398,0.0028999999677913,0.0028999999770255,0.28263636481,0.28263636332925
0.15,0.0075,0.28454545410086,0.0016450216238506,0.0016450216121719,0.28454545385561,0.0029999999674209,0.0029999999769736,0.28454545572231,0.28454545423832
0.155,0.00775,0.28645454500901,0.0017359307147148,0.0017359307027347,0.28645454475743,0.0030999999670597,0.0030999999769261,0.28645454663444,0.28645454514741
0.16,0.008,0.28836363591724,0.0018268398055826,0.0018268397933064,0.28836363565943,0.0031999999667075,0.0031999999768824,0.28836363754644,0.28836363605651
0.165,0.00825,0.29027272682552,0.0019177488964532,0.0019177488838857,0.2902727265616,0.0032999999663631,0.0032999999768415,0.29027272845825,0.29027272696559
0.17,0.0085,0.29218181773387,0.0020086579873272,0.0020086579744734,0.29218181746394,0.0033999999660275,0.0033999999768044,0.29218181936997,0.2921818178747
0.175,0.00875,0.29409090864229,0.0020995670782042,0.0020995670650689,0.29409090836645,0.0034999999656998,0.0034999999767704,0.29409091028154,0.2940909087838
0.18,0.009,0.29599999955074,0.0021904761690831,0.0021904761556708,0.29599999926909,0.0035999999653786,0.0035999999767383,0.29600000119298,0.29599999969287
0.185,0.00925,0.29790909045926,0.0022813852599646,0.0022813852462801,0.29790909017188,0.0036999999650652,0.003699999976709,0.29790909210435,0.29790909060196
0.19,0.0095,0.29981818136781,0.0023722943508481,0.0023722943368957,0.29981818107481,0.0037999999647581,0.0037999999766819,0.29981818301557,0.29981818151105
0.195,0.00975,0.30172727227641,0.0024632034417338,0.002463203427518,0.30172727197788,0.0038999999644581,0.0038999999766571,0.30172727392675,0.30172727242014
0.2,0.01,0.30363636318504,0.0025541125326211,0.0025541125181466,0.30363636288108,0.0039999999641646,0.003999999976634,0.30363636483786,0.30363636332924
0.205,0.01025,0.30554545409371,0.0026450216235101,0.0026450216087808,0.3055454537844,0.0040999999638769,0.0040999999766127,0.30554545574889,0.30554545423833
0.21,0.0105,0.30745454500242,0.0027359307144009,0.002735930699421,0.30745454468784,0.0041999999635954,0.0041999999765934,0.3074545466598,0.30745454514742
0.215,0.01075,0.30936363591115,0.0028268398052927,0.0028268397900665,0.3093636355914,0.0042999999633194,0.004299999976575,0.30936363757067,0.30936363605648
0.22,0.011,0.3112727268199,0.0029177488961858,0.0029177488807173,0.31127272649506,0.0043999999630489,0.0043999999765581,0.31127272848153,0.31127272696558
0.225,0.01125,0.31318181772869,0.0030086579870804,0.0030086579713735,0.31318181739884,0.0044999999627842,0.0044999999765427,0.3131818193923,0.31318181787468
0.23,0.0115,0.31509090863751,0.0030995670779765,0.0030995670620352,0.31509090830274,0.0045999999625249,0.0045999999765289,0.31509091030301,0.31509090878378
0.235,0.01175,0.31699999954634,0.0031904761688731,0.0031904761527013,0.31699999920673,0.0046999999622705,0.0046999999765157,0.31700000121371,0.31699999969286
0.24,0.012,0.31890909045518,0.0032813852597706,0.0032813852433719,0.31890909011081,0.0047999999620205,0.0047999999765033,0.3189090921243,0.31890909060192
0.245,0.01225,0.32081818136406,0.0033722943506697,0.0033722943340479,0.32081818101501,0.0048999999617763,0.0048999999764928,0.32081818303494,0.32081818151106
0.25,0.0125,0.32272727227294,0.0034632034415686,0.0034632034247274,0.32272727191928,0.0049999999615358,0.0049999999764821,0.32272727394554,0.32272727242015
0.255,0.01275,0.32463636318184,0.0035541125324685,0.0035541125154113,0.32463636282364,0.0050999999612998,0.0050999999764722,0.32463636485603,0.32463636332923
0.26,0.013,0.32654545409076,0.0036450216233696,0.0036450216061001,0.3265454537281,0.0051999999610689,0.0051999999764637,0.32654545576649,0.32654545423829
0.265,0.01325,0.32845454499968,0.0037359307142705,0.003735930696792,0.32845454463263,0.0052999999608413,0.0052999999764551,0.32845454667695,0.32845454514738
0.27,0.0135,0.33036363590864,0.0038268398051732,0.0038268397874893,0.33036363553727,0.0053999999606195,0.0053999999764484,0.33036363758745,0.33036363605652
0.275,0.01375,0.33227272681759,0.0039177488960755,0.0039177488781895,0.33227272644198,0.0054999999604005,0.0054999999764412,0.33227272849782,0.33227272696558
0.28,0.014,0.33418181772655,0.0040086579869786,0.0040086579688937,0.33418181734677,0.0055999999601857,0.0055999999764348,0.33418181940817,0.33418181787467
0.285,0.01425,0.33609090863553,0.0040995670778823,0.0040995670596017,0.33609090825164,0.005699999959975,0.005699999976429,0.33609091031853,0.33609090878375
0.29,0.0145,0.33799999954452,0.0041904761687866,0.0041904761503136,0.33799999915659,0.0057999999597685,0.0057999999764239,0.33800000122892,0.33799999969284
0.295,0.01475,0.33990909045349,0.0042813852596902,0.0042813852410278,0.33990909006158,0.0058999999595641,0.0058999999764181,0.3399090921392,0.33990909060192
0.3,0.015,0.3418181813625,0.0043722943505951,0.0043722943317467,0.34181818096668,0.0059999999593649,0.0059999999764138,0.34181818304954,0.34181818151103
0.305,0.01525,0.3437272722715,0.0044632034414998,0.0044632034224681,0.34372727187183,0.0060999999591682,0.006099999976409,0.34372727395979,0.3437272724201
0.31,0.0155,0.34563636318052,0.0045541125324055,0.0045541125131936,0.34563636277707,0.0061999999589758,0.0061999999764054,0.34563636487009,0.3456363633292
0.315,0.01575,0.34754545408954,0.0046450216233113,0.0046450216039218,0.34754545368236,0.0062999999587863,0.0062999999764021,0.34754545578031,0.34754545423834
0.32,0.016,0.34945454499855,0.0047359307142168,0.0047359306946531,0.34945454458772,0.0063999999586,0.0063999999763981,0.34945454669052,0.34945454514737
0.325,0.01625,0.35136363590759,0.0048268398051232,0.004826839785388,0.35136363549315,0.0064999999584176,0.0064999999763954,0.35136363760083,0.35136363605653
0.33,0.0165,0.35327272681662,0.0049177488960296,0.0049177488761254,0.35327272639863,0.0065999999582376,0.0065999999763925,0.35327272851097,0.35327272696557
0.335,0.01675,0.35518181772566,0.0050086579869363,0.005008657966866,0.35518181730419,0.0066999999580611,0.00669999997639,0.35518181942115,0.3551818178747
0.34,0.017,0.3570909086347,0.0050995670778427,0.0050995670576089,0.35709090820979,0.0067999999578869,0.0067999999763871,0.35709091033126,0.35709090878375
0.345,0.01725,0.35899999954374,0.0051904761687497,0.0051904761483551,0.35899999911546,0.0068999999577163,0.0068999999763849,0.35900000124144,0.35899999969283
0.35,0.0175,0.36090909045279,0.0052813852596568,0.0052813852391041,0.36090909002119,0.0069999999575485,0.0069999999763827,0.36090909215157,0.36090909060193
0.355,0.01775,0.36281818136184,0.005372294350564,0.0053722943298556,0.36281818092697,0.0070999999573835,0.0070999999763807,0.36281818306169,0.36281818151102
0.36,0.018,0.3647272722709,0.0054632034414716,0.00546320342061,0.36472727183281,0.0071999999572214,0.0071999999763791,0.36472727397178,0.36472727242011
0.365,0.01825,0.36663636317995,0.0055541125323787,0.0055541125113664,0.36663636273869,0.0072999999570614,0.0072999999763769,0.36663636488183,0.36663636332917
0.37,0.0185,0.36854545408902,0.0056450216232866,0.0056450216021262,0.36854545364465,0.0073999999569051,0.0073999999763758,0.36854545579195,0.36854545423828
0.375,0.01875,0.37045454499808,0.0057359307141944,0.0057359306928883,0.37045454455065,0.0074999999567513,0.0074999999763745,0.37045454670205,0.3704545451474
0.38,0.019,0.37236363590715,0.0058268398051024,0.0058268397836527,0.37236363545671,0.0075999999565997,0.0075999999763733,0.37236363761209,0.3723636360565
0.385,0.01925,0.37427272681621,0.0059177488960098,0.0059177488744189,0.3742727263628,0.0076999999564499,0.0076999999763714,0.37427272852206,0.37427272696554
0.39,0.0195,0.37618181772528,0.0060086579869181,0.0060086579651885,0.37618181726896,0.0077999999563038,0.0077999999763707,0.37618181943213,0.37618181787468
0.395,0.01975,0.37809090863434,0.006099567077826,0.0060995670559596,0.37809090817515,0.0078999999561594,0.0078999999763693,0.37809091034215,0.37809090878374
0.4,0.02,0.37999999954341,0.006190476168734,0.0061904761467332,0.3799999990814,0.0079999999560174,0.0079999999763681,0.38000000125208,0.3799999996928
0.405,0.02025,0.38190909045249,0.0062813852596423,0.0062813852375094,0.3819090899877,0.0080999999558785,0.0080999999763674,0.38190909216217,0.38190909060196
0.41,0.0205,0.38381818136157,0.0063722943505508,0.0063722943282878,0.38381818089404,0.0081999999557415,0.0081999999763668,0.38381818307217,0.38381818151106
0.415,0.02075,0.38572727227064,0.0064632034414591,0.006463203419068,0.38572727180043,0.0082999999556065,0.0082999999763659,0.38572727398209,0.38572727242012
0.42,0.021,0.38763636317973,0.006554112532368,0.006554112509851,0.38763636270687,0.0083999999554745,0.0083999999763657,0.38763636489204,0.3876363633292
0.425,0.02125,0.38954545408879,0.0066450216232757,0.0066450216006348,0.38954545361333,0.0084999999553432,0.0084999999763641,0.38954545580192,0.38954545423823
0.43,0.0215,0.39145454499787,0.0067359307141844,0.0067359306914213,0.39145454451985,0.0085999999552148,0.0085999999763637,0.39145454671185,0.39145454514738
0.435,0.02175,0.39336363590695,0.0068268398050929,0.0068268397822102,0.39336363542641,0.0086999999550892,0.0086999999763632,0.39336363762183,0.39336363605646
0.44,0.022,0.39527272681603,0.0069177488960015,0.0069177488730006,0.39527272633301,0.0087999999549648,0.0087999999763626,0.3952727285317,0.39527272696554
0.445,0.02225,0.39718181772511,0.00700865798691,0.0070086579637931,0.39718181723966,0.0088999999548427,0.0088999999763619,0.39718181944158,0.39718181787461
0.45,0.0225,0.39909090863418,0.0070995670778181,0.0070995670545871,0.39909090814633,0.0089999999547223,0.0089999999763609,0.39909091035147,0.3990909087837
0.455,0.02275,0.40099999954328,0.0071904761687274,0.0071904761453838,0.40099999905306,0.0090999999546046,0.0090999999763612,0.40100000126133,0.40099999969282
0.46,0.023,0.40290909045236,0.0072813852596362,0.0072813852361821,0.40290908995982,0.0091999999544887,0.0091999999763608,0.40290909217123,0.40290909060192
0.465,0.02325,0.40481818136144,0.0073722943505448,0.0073722943269817,0.40481818086662,0.0092999999543741,0.0092999999763605,0.4048181830811,0.40481818151107
0.47,0.0235,0.40672727227052,0.0074632034414532,0.0074632034177831,0.40672727177344,0.0093999999542613,0.0093999999763597,0.40672727399089,0.40672727242011
0.475,0.02375,0.4086363631796,0.0075541125323618,0.0075541125085864,0.40863636268032,0.0094999999541507,0.0094999999763591,0.40863636490077,0.40863636332919
0.48,0.024,0.4105454540887,0.0076450216232715,0.0076450215993925,0.41054545358724,0.0095999999540429,0.0095999999763598,0.41054545581056,0.41054545423829
0.485,0.02425,0.41245454499777,0.0077359307141797,0.0077359306901985,0.41245454449417,0.0096999999539348,0.0096999999763588,0.41245454672032,0.41245454514739
0.49,0.0245,0.41436363590686,0.0078268398050887,0.0078268397810074,0.41436363540115,0.00979999995383,0.0097999999763587,0.41436363763017,0.41436363605648
0.495,0.02475,0.41627272681595,0.0079177488959978,0.007917748871818,0.41627272630818,0.0098999999537269,0.0098999999763588,0.41627272853993,0.41627272696555
0.5,0.025,0.41818181772503,0.0080086579869063,0.0080086579626295,0.41818181721522,0.009999999953625,0.0099999999763581,0.41818181944979,0.41818181787466
0.505,0.02525,0.42009090863412,0.0080995670778154,0.0080995670534427,0.4200909081223,0.010099999953525,0.010099999976358,0.42009091035956,0.42009090878379
0.51,0.0255,0.42199999954322,0.0081904761687245,0.0081904761442575,0.42199999902941,0.010199999953426,0.010199999976358,0.42200000126914,0.42199999969283
0.515,0.02575,0.4239090904523,0.0082813852596334,0.0082813852350742,0.42390908993656,0.010299999953329,0.010299999976358,0.423909092179,0.42390909060194
0.52,0.026,0.42581818136139,0.0083722943505422,0.008372294325892,0.42581818084373,0.010399999953234,0.010399999976358,0.42581818308874,0.42581818151104
0.525,0.02625,0.42772727227047,0.0084632034414508,0.0084632034167112,0.42772727175094,0.01049999995314,0.010499999976357,0.42772727399847,0.42772727242008
0.53,0.0265,0.42963636317955,0.0085541125323594,0.0085541125075315,0.42963636265816,0.010599999953047,0.010599999976357,0.42963636490815,0.42963636332919
0.535,0.02675,0.43154545408864,0.0086450216232684,0.0086450215983536,0.43154545356543,0.010699999952955,0.010699999976356,0.43154545581782,0.43154545423829
0.54,0.027,0.43345454499772,0.0087359307141774,0.0087359306891776,0.43345454447273,0.010799999952866,0.010799999976356,0.43345454672749,0.43345454514735
0.545,0.02725,0.43536363590682,0.0088268398050867,0.008826839780003,0.43536363538006,0.010899999952779,0.010899999976357,0.43536363763722,0.43536363605651
0.55,0.0275,0.43727272681591,0.0089177488959959,0.0089177488708296,0.43727272628742,0.010999999952693,0.010999999976357,0.43727272854692,0.43727272696554
0.555,0.02775,0.43918181772498,0.0090086579869038,0.0090086579616564,0.43918181719479,0.011099999952606,0.011099999976355,0.43918181945651,0.43918181787456
0.56,0.028,0.44109090863408,0.0090995670778135,0.0090995670524863,0.44109090810221,0.011199999952524,0.011199999976356,0.44109091036622,0.44109090878367
0.565,0.02825,0.44299999954316,0.0091904761687221,0.009190476143316,0.44299999900964,0.01129999995244,0.011299999976356,0.44300000127586,0.44299999969278
0.57,0.0285,0.44490909045225,0.009281385259631,0.0092813852341477,0.4449090899171,0.011399999952359,0.011399999976355,0.44490909218553,0.44490909060188
0.575,0.02875,0.44681818136134,0.00937229435054,0.0093722943249805,0.44681818082459,0.011499999952279,0.011499999976355,0.44681818309509,0.44681818151097
0.58,0.029,0.44872727227043,0.0094632034414491,0.0094632034158146,0.44872727173211,0.011599999952201,0.011599999976355,0.44872727400467,0.44872727242007
0.585,0.02925,0.45063636317951,0.0095541125323578,0.0095541125066496,0.45063636263964,0.011699999952123,0.011699999976355,0.45063636491432,0.45063636332914
0.59,0.0295,0.45254545408861,0.0096450216232673,0.0096450215974865,0.45254545354722,0.011799999952048,0.011799999976355,0.45254545582405,0.45254545423835
0.595,0.02975,0.4544545449977,0.0097359307141763,0.0097359306883242,0.45445454445481,0.011899999951973,0.011899999976355,0.45445454673352,0.45445454514734
0.6,0.03,0.45636363590678,0.0098268398050849,0.0098268397791627,0.45636363536242,0.011999999951899,0.011999999976355,0.45636363764313,0.45636363605642
0.605,0.03025,0.45827272681587,0.009917748895994,0.0099177488700026,0.45827272627005,0.012099999951827,0.012099999976355,0.45827272855266,0.45827272696551
0.61,0.0305,0.46018181772497,0.010008657986903,0.010008657960844,0.46018181717772,0.012199999951756,0.012199999976355,0.46018181946223,0.46018181787462
0.615,0.03075,0.46209090863404,0.010099567077812,0.010099567051685,0.46209090808539,0.012299999951685,0.012299999976354,0.46209091037178,0.4620909087837
0.62,0.031,0.46399999954314,0.010190476168721,0.010190476142529,0.46399999899311,0.012399999951617,0.012399999976354,0.46400000128134,0.46399999969271
0.625,0.03125,0.46590909045222,0.01028138525963,0.010281385233373,0.46590908990084,0.012499999951549,0.012499999976354,0.46590909219098,0.46590909060186
0.63,0.0315,0.46781818136131,0.010372294350539,0.010372294324218,0.46781818080858,0.012599999951482,0.012599999976354,0.46781818310044,0.467818181511
0.635,0.03175,0.46972727227039,0.010463203441447,0.010463203415064,0.46972727171635,0.012699999951415,0.012699999976353,0.46972727400991,0.46972727242002
0.64,0.032,0.4716363631795,0.010554112532357,0.010554112505912,0.47163636262416,0.012799999951352,0.012799999976354,0.47163636491948,0.47163636332917
0.645,0.03225,0.47354545408858,0.010645021623266,0.01064502159676,0.47354545353197,0.012899999951288,0.012899999976354,0.47354545582896,0.47354545423822
0.65,0.0325,0.47545454499767,0.010735930714175,0.01073593068761,0.47545454443981,0.012999999951226,0.012999999976353,0.47545454673855,0.47545454514734
0.655,0.03275,0.47736363590676,0.010826839805084,0.01082683977846,0.47736363534767,0.013099999951164,0.013099999976354,0.47736363764796,0.47736363605636
0.66,0.033,0.47927272681584,0.010917748895993,0.010917748869311,0.47927272625553,0.013199999951103,0.013199999976353,0.47927272855751,0.4792727269655
0.665,0.03325,0.48118181772494,0.011008657986902,0.011008657960164,0.48118181716344,0.013299999951044,0.013299999976353,0.48118181946692,0.48118181787454
0.67,0.0335,0.48309090863403,0.011099567077811,0.011099567051017,0.48309090807135,0.013399999950985,0.013399999976353,0.48309091037639,0.48309090878363
0.675,0.03375,0.48499999954312,0.01119047616872,0.011190476141871,0.48499999897929,0.013499999950928,0.013499999976354,0.48500000128596,0.48499999969283
0.68,0.034,0.48690909045221,0.011281385259629,0.011281385232725,0.48690908988724,0.013599999950871,0.013599999976353,0.48690909219534,0.48690909060187
0.685,0.03425,0.48881818136131,0.011372294350539,0.011372294323582,0.48881818079522,0.013699999950816,0.013699999976354,0.48881818310485,0.488818181511
0.69,0.0345,0.49072727227038,0.011463203441447,0.011463203414438,0.49072727170319,0.013799999950759,0.013799999976353,0.49072727401414,0.49072727241995
0.695,0.03475,0.49263636317948,0.011554112532356,0.011554112505295,0.4926363626112,0.013899999950706,0.013899999976353,0.49263636492373,0.49263636332921
0.7,0.035,0.49454545408856,0.011645021623265,0.011645021596153,0.49454545351922,0.013999999950652,0.013999999976352,0.49454545583313,0.49454545423821
0.705,0.03525,0.49645454499766,0.011735930714174,0.011735930687013,0.49645454442727,0.014099999950601,0.014099999976353,0.49645454674272,0.49645454514739
0.71,0.0355,0.49836363590674,0.011826839805083,0.011826839777872,0.49836363533532,0.014199999950548,0.014199999976352,0.49836363765193,0.49836363605638
0.715,0.03575,0.50027272681582,0.011917748895992,0.011917748868732,0.50027272624338,0.014299999950497,0.014299999976352,0.50027272856144,0.5002727269655
0.72,0.036,0.50218181772492,0.012008657986901,0.012008657959594,0.50218181715147,0.014399999950447,0.014399999976352,0.50218181947076,0.50218181787457
0.725,0.03625,0.50409090863402,0.01209956707781,0.012099567050457,0.50409090805959,0.014499999950399,0.014499999976353,0.50409091038014,0.50409090878366
0.73,0.0365,0.50599999954309,0.012190476168719,0.012190476141319,0.50599999896771,0.01459999995035,0.014599999976352,0.50600000128968,0.50599999969279
0.735,0.03675,0.50790909045218,0.012281385259628,0.012281385232183,0.50790908987585,0.014699999950303,0.014699999976352,0.50790909219894,0.50790909060185
0.74,0.037,0.50981818136128,0.012372294350537,0.012372294323048,0.509818180784,0.014799999950256,0.014799999976352,0.50981818310828,0.5098181815109
0.745,0.03725,0.51172727227037,0.012463203441446,0.012463203413913,0.51172727169217,0.01489999995021,0.014899999976352,0.51172727401775,0.51172727242005
0.75,0.0375,0.51363636317945,0.012554112532355,0.012554112504778,0.51363636260035,0.014999999950165,0.014999999976352,0.51363636492724,0.51363636332915
0.755,0.03775,0.51554545408855,0.012645021623264,0.012645021595645,0.51554545350855,0.01509999995012,0.015099999976352,0.51554545583659,0.51554545423831
0.76,0.038,0.51745454499764,0.012735930714173,0.012735930686513,0.51745454441676,0.015199999950076,0.015199999976352,0.5174545467459,0.51745454514731
0.765,0.03825,0.51936363590672,0.012826839805082,0.01282683977738,0.51936363532498,0.015299999950033,0.015299999976352,0.5193636376553,0.51936363605644
0.77,0.0385,0.52127272681582,0.012917748895991,0.012917748868249,0.52127272623323,0.015399999949991,0.015399999976352,0.52127272856461,0.52127272696554
0.775,0.03875,0.5231818177249,0.0130086579869,0.013008657959118,0.52318181714147,0.015499999949948,0.015499999976351,0.523181819474,0.52318181787461
0.78,0.039,0.52509090863399,0.013099567077809,0.013099567049988,0.52509090804975,0.015599999949908,0.015599999976351,0.52509091038326,0.52509090878368
0.785,0.03925,0.52699999954308,0.013190476168718,0.013190476140858,0.52699999895803,0.015699999949867,0.015699999976351,0.52700000129267,0.52699999969278
0.79,0.0395,0.52890909045219,0.013281385259628,0.01328138523173,0.52890908986634,0.015799999949828,0.015799999976352,0.52890909220201,0.52890909060186
0.795,0.03975,0.53081818136125,0.013372294350536,0.0133722943226,0.53081818077461,0.015899999949787,0.015899999976351,0.53081818311122,0.53081818151092
0.8,0.04,0.53272727227034,0.013463203441445,0.013463203413473,0.53272727168293,0.015999999949749,0.01599999997635,0.53272727402056,0.53272727241997
0.805,0.04025,0.53463636317944,0.013554112532354,0.013554112504346,0.53463636259127,0.016099999949712,0.016099999976351,0.5346363649299,0.53463636332908
0.81,0.0405,0.53654545408854,0.013645021623264,0.01364502159522,0.53654545349963,0.016199999949675,0.016199999976352,0.53654545583923,0.53654545423822
0.815,0.04075,0.53845454499762,0.013735930714172,0.013735930686094,0.53845454440797,0.016299999949637,0.016299999976351,0.53845454674842,0.53845454514724
0.82,0.041,0.5403636359067,0.013826839805081,0.013826839776968,0.54036363531632,0.0163999999496,0.01639999997635,0.54036363765774,0.54036363605635
0.825,0.04125,0.5422727268158,0.01391774889599,0.013917748867844,0.54227272622472,0.016499999949566,0.016499999976351,0.54227272856716,0.54227272696545
0.83,0.0415,0.54418181772489,0.0140086579869,0.014008657958719,0.54418181713311,0.016599999949531,0.016599999976351,0.54418181947635,0.54418181787455
0.835,0.04175,0.54609090863398,0.014099567077809,0.014099567049596,0.54609090804151,0.016699999949497,0.016699999976351,0.54609091038575,0.54609090878364
0.84,0.042,0.54799999954307,0.014190476168718,0.014190476140472,0.54799999894992,0.016799999949463,0.016799999976351,0.54800000129498,0.54799999969275
0.845,0.04225,0.54990909045216,0.014281385259627,0.01428138523135,0.54990908985835,0.01689999994943,0.016899999976351,0.54990909220437,0.54990909060191
0.85,0.0425,0.55181818136126,0.014372294350536,0.014372294322228,0.55181818076678,0.016999999949397,0.016999999976351,0.55181818311361,0.55181818151098
0.855,0.04275,0.55372727227034,0.014463203441445,0.014463203413106,0.55372727167522,0.017099999949364,0.017099999976351,0.5537272740229,0.55372727242013
0.86,0.043,0.55563636317943,0.014554112532354,0.014554112503984,0.55563636258367,0.017199999949332,0.01719999997635,0.55563636493204,0.5556363633291
0.865,0.04325,0.55754545408849,0.014645021623262,0.014645021594863,0.55754545349211,0.0172999999493,0.017299999976349,0.55754545584136,0.55754545423817
0.87,0.0435,0.55945454499758,0.014735930714171,0.014735930685743,0.5594545444006,0.01739999994927,0.017399999976349,0.55945454675072,0.55945454514729
0.875,0.04375,0.56136363590668,0.01482683980508,0.014826839776623,0.56136363530908,0.017499999949239,0.017499999976349,0.5613636376598,0.56136363605629
0.88,0.044,0.56327272681578,0.014917748895989,0.014917748867504,0.56327272621758,0.01759999994921,0.01759999997635,0.56327272856931,0.56327272696555
0.885,0.04425,0.56518181772487,0.015008657986899,0.015008657958385,0.56518181712609,0.01769999994918,0.01769999997635,0.56518181947827,0.56518181787451
0.89,0.0445,0.56709090863397,0.015099567077808,0.015099567049267,0.56709090803461,0.017799999949152,0.01779999997635,0.56709091038777,0.56709090878377
0.895,0.04475,0.56899999954305,0.015190476168716,0.015190476140149,0.56899999894313,0.017899999949123,0.01789999997635,0.56900000129696,0.56899999969279
0.9,0.045,0.57090909045214,0.015281385259626,0.015281385231032,0.57090908985166,0.017999999949096,0.01799999997635,0.57090909220607,0.57090909060178
0.905,0.04525,0.57281818136122,0.015372294350534,0.015372294321914,0.57281818076019,0.018099999949067,0.018099999976349,0.57281818311527,0.57281818151084
0.91,0.0455,0.57472727227031,0.015463203441443,0.015463203412797,0.57472727166874,0.018199999949041,0.018199999976349,0.57472727402466,0.57472727241999
0.915,0.04575,0.57663636317939,0.015554112532352,0.01555411250368,0.57663636257728,0.018299999949013,0.018299999976348,0.57663636493369,0.57663636332901
0.92,0.046,0.5785454540885,0.015645021623262,0.015645021594565,0.57854545348587,0.018399999948988,0.018399999976349,0.57854545584306,0.57854545423821
0.925,0.04625,0.58045454499759,0.015735930714171,0.01573593068545,0.58045454439444,0.018499999948962,0.018499999976349,0.58045454675226,0.58045454514725
0.93,0.0465,0.58236363590666,0.015826839805079,0.015826839776334,0.58236363530301,0.018599999948936,0.018599999976348,0.58236363766156,0.58236363605633
0.935,0.04675,0.58427272681575,0.015917748895988,0.015917748867219,0.5842727262116,0.018699999948911,0.018699999976349,0.58427272857079,0.58427272696555
0.94,0.047,0.58618181772486,0.016008657986898,0.016008657958106,0.58618181712023,0.018799999948888,0.018799999976349,0.58618181948009,0.5861818178746
0.945,0.04725,0.58809090863393,0.016099567077806,0.016099567048991,0.58809090802881,0.018899999948862,0.018899999976348,0.58809091038916,0.5880909087836
0.95,0.0475,0.58999999954304,0.016190476168716,0.016190476139878,0.58999999893745,0.01899999994884,0.01899999997635,0.59000000129849,0.58999999969282
0.955,0.04775,0.59190909045212,0.016281385259625,0.016281385230765,0.59190908984606,0.019099999948816,0.019099999976349,0.59190909220766,0.59190909060186
0.96,0.048,0.59381818136121,0.016372294350534,0.016372294321652,0.59381818075469,0.019199999948792,0.019199999976348,0.59381818311675,0.59381818151084
0.965,0.04825,0.5957272722703,0.016463203441443,0.016463203412539,0.59572727166332,0.01929999994877,0.019299999976348,0.5957272740261,0.59572727242003
0.97,0.0485,0.59763636317938,0.016554112532352,0.016554112503427,0.59763636257196,0.019399999948747,0.019399999976348,0.59763636493513,0.59763636332902
0.975,0.04875,0.59954545408847,0.016645021623261,0.016645021594315,0.59954545348062,0.019499999948725,0.019499999976348,0.59954545584449,0.59954545423816
0.98,0.049,0.60145454499755,0.016735930714169,0.016735930685202,0.60145454438925,0.019599999948702,0.019599999976347,0.60145454675356,0.60145454514722
0.985,0.04925,0.60336363590666,0.016826839805079,0.016826839776092,0.60336363529794,0.019699999948682,0.019699999976348,0.60336363766287,0.60336363605639
0.99,0.0495,0.60527272681576,0.016917748895988,0.016917748866982,0.60527272620662,0.019799999948662,0.019799999976349,0.60527272857196,0.60527272696544
0.995,0.04975,0.60718181772483,0.017008657986897,0.017008657957871,0.60718181711528,0.01989999994864,0.019899999976348,0.60718181948113,0.60718181787451
1,0.05,0.60909090863392,0.017099567077806,0.017099567048761,0.60909090802397,0.019999999948621,0.019999999976348,0.60909091039053,0.60909090878369
1.005,0.04975,0.58809090985517,0.017099567077806,0.017099567048761,0.58809091016124,0.019899999955941,0.019899999980611,0.58809091102769,0.58809090919007
1.01,0.0495,0.56709090985527,0.017099567077806,0.017099567048761,0.56709091016128,0.019799999955941,0.019799999980611,0.56709091102782,0.56709090919013
1.015,0.04925,0.54609090985527,0.017099567077806,0.017099567048761,0.54609091016128,0.019699999955941,0.019699999980611,0.54609091102781,0.54609090919012
1.02,0.049,0.52509090985527,0.017099567077806,0.017099567048761,0.52509091016128,0.019599999955941,0.019599999980611,0.52509091102781,0.52509090919013
1.025,0.04875,0.50409090985527,0.017099567077806,0.017099567048761,0.50409091016128,0.019499999955941,0.019499999980611,0.50409091102781,0.50409090919013
1.03,0.0485,0.48309090985527,0.017099567077806,0.017099567048761,0.48309091016128,0.019399999955941,0.019399999980611,0.48309091102781,0.48309090919013
1.035,0.04825,0.46209090985528,0.017099567077806,0.017099567048761,0.46209091016129,0.019299999955941,0.019299999980611,0.46209091102782,0.46209090919013
1.04,0.048,0.44109090985528,0.017099567077806,0.017099567048761,0.44109091016128,0.019199999955941,0.019199999980611,0.44109091102781,0.44109090919013
1.045,0.04775,0.42009090985528,0.017099567077806,0.017099567048761,0.42009091016129,0.019099999955941,0.019099999980611,0.42009091102781,0.42009090919013
1.05,0.0475,0.39909090985528,0.017099567077806,0.017099567048761,0.39909091016129,0.018999999955941,0.018999999980611,0.39909091102782,0.39909090919013
1.055,0.04725,0.37809090985528,0.017099567077806,0.017099567048761,0.37809091016129,0.018899999955941,0.018899999980611,0.37809091102782,0.37809090919013
1.06,0.047,0.35709090985528,0.017099567077806,0.017099567048761,0.35709091016129,0.018799999955941,0.018799999980611,0.35709091102782,0.35709090919013
1.065,0.04675,0.33609090985528,0.017099567077806,0.017099567048761,0.33609091016129,0.018699999955941,0.018699999980612,0.33609091102782,0.33609090919013
1.07,0.0465,0.31509090985528,0.017099567077806,0.017099567048761,0.31509091016129,0.018599999955941,0.018599999980612,0.31509091102781,0.31509090919013
1.075,0.04625,0.29409090985528,0.017099567077806,0.017099567048761,0.29409091016129,0.018499999955941,0.018499999980612,0.29409091102782,0.29409090919013
1.08,0.046,0.27309090985528,0.017099567077806,0.017099567048761,0.27309091016129,0.018399999955941,0.018399999980612,0.27309091102782,0.27309090919013
1.085,0.04575,0.25209090985528,0.017099567077806,0.017099567048761,0.25209091016129,0.018299999955941,0.018299999980612,0.25209091102782,0.25209090919013
1.09,0.0455,0.23109090985528,0.017099567077806,0.017099567048761,0.23109091016129,0.018199999955941,0.018199999980612,0.23109091102782,0.23109090919013
1.095,0.04525,0.21009090985528,0.017099567077806,0.017099567048761,0.21009091016129,0.018099999955941,0.018099999980612,0.21009091102782,0.21009090919013
1.1,0.045,0.18909090985528,0.017099567077806,0.017099567048761,0.18909091016129,0.017999999955941,0.017999999980612,0.18909091102782,0.18909090919013
1.105,0.04475,0.16809090985528,0.017099567077806,0.017099567048761,0.16809091016129,0.017899999955941,0.017899999980612,0.16809091102782,0.16809090919013
1.11,0.0445,0.14709090985528,0.017099567077806,0.017099567048761,0.14709091016129,0.017799999955941,0.017799999980612,0.14709091102782,0.14709090919013
1.115,0.04425,0.12609090941632,0.017099567077806,0.017099567048761,0.12609091028004,0.017699999957677,0.017699999978341,0.12609091176123,0.12609090865644
1.12,0.044,0.10872727270045,0.017116883074638,0.017082251057364,0.10872727220464,0.017599999974111,0.017599999998687,0.10872727298554,0.108727272749
1.125,0.04375,0.10681818218034,0.017207792147024,0.016991341990939,0.10681818180972,0.017499999997937,0.017500000018865,0.10681818095942,0.10681818212549
1.13,0.0435,0.10490909127859,0.017298701237583,0.01690043290117,0.10490909092458,0.017399999999109,0.017400000019236,0.10490909003097,0.10490909121641
1.135,0.04325,0.10300000037628,0.01738961032817,0.016809523811361,0.10300000003858,0.01730000000024,0.017300000019578,0.1029999991037,0.10300000030718
1.14,0.043,0.10109090947344,0.017480519418781,0.016718614721512,0.10109090915176,0.017200000001333,0.017200000019894,0.10109090817812,0.10109090939817
1.145,0.04275,0.099181818570113,0.017571428509416,0.016627705631627,0.099181818264166,0.017100000002389,0.017100000020185,0.09918181725387,0.099181818489161
1.15,0.0425,0.097272727666346,0.017662337600071,0.016536796541707,0.097272727375856,0.017000000003411,0.017000000020454,0.097272726330359,0.097272727579952
1.155,0.04225,0.095363636762146,0.017753246690747,0.016445887451754,0.095363636486844,0.016900000004399,0.0169000000207,0.095363635408164,0.095363636670817
1.16,0.042,0.093454545857592,0.01784415578144,0.016354978361771,0.093454545597201,0.016800000005357,0.01680000002093,0.093454544486796,0.093454545761797
1.165,0.04175,0.091545454952677,0.017935064872151,0.016264069271759,0.091545454706944,0.016700000006286,0.01670000002114,0.091545453566305,0.091545454852711
1.17,0.0415,0.089636364047433,0.018025973962877,0.016173160181719,0.089636363816102,0.016600000007187,0.016600000021334,0.089636362646611,0.089636363943604
1.175,0.04125,0.087727273141895,0.018116883053616,0.016082251091653,0.087727272924716,0.016500000008062,0.016500000021514,0.087727271727619,0.087727273034498
1.18,0.041,0.085818182236083,0.018207792144369,0.015991342001562,0.08581818203281,0.016400000008912,0.016400000021679,0.085818180809272,0.085818182125404
1.185,0.04075,0.083909091330016,0.018298701235134,0.015900432911448,0.083909091140411,0.016300000009738,0.016300000021832,0.083909089891671,0.083909091216342
1.19,0.0405,0.082000000423714,0.018389610325911,0.015809523821312,0.082000000247542,0.016200000010541,0.016200000021973,0.08199999897438,0.082000000307277
1.195,0.04025,0.080090909517195,0.018480519416697,0.015718614731154,0.080090909354231,0.016100000011323,0.016100000022103,0.080090908057693,0.080090909398194
1.2,0.04,0.07818181861048,0.018571428507493,0.015627705640976,0.078181818460498,0.016000000012085,0.016000000022222,0.078181817141491,0.078181818489041
1.205,0.03975,0.076272727703578,0.018662337598298,0.015536796550779,0.076272727566356,0.015900000012827,0.015900000022333,0.076272726225691,0.076272727579934
1.21,0.0395,0.07436363679651,0.018753246689111,0.015445887460563,0.07436363667183,0.01580000001355,0.015800000022435,0.074363635310208,0.074363636670828
1.215,0.03925,0.072454545889281,0.018844155779931,0.01535497837033,0.07245454577693,0.015700000014255,0.015700000022529,0.072454544395016,0.072454545761761
1.22,0.039,0.070545454981908,0.018935064870759,0.01526406928008,0.070545454881687,0.015600000014943,0.015600000022616,0.07054545348038,0.070545454852682
1.225,0.03875,0.0686363640744,0.019025973961592,0.015173160189814,0.068636363986103,0.015500000015615,0.015500000022696,0.068636362565913,0.068636363943601
1.23,0.0385,0.066727273166767,0.019116883052432,0.015082251099533,0.066727273090199,0.01540000001627,0.015400000022769,0.066727271651719,0.066727273034476
1.235,0.03825,0.064818182259032,0.019207792143277,0.014991342009237,0.064818182193986,0.015300000016911,0.015300000022838,0.064818180737761,0.064818182125388
1.24,0.038,0.062909091351179,0.019298701234127,0.014900432918927,0.062909091297466,0.015200000017537,0.0152000000229,0.06290908982404,0.062909091216309
1.245,0.03775,0.061000000443244,0.019389610324981,0.014809523828604,0.061000000400676,0.01510000001815,0.015100000022959,0.060999998910615,0.061000000307296
1.25,0.0375,0.059090909535208,0.01948051941584,0.014718614738267,0.059090909503601,0.015000000018748,0.015000000023012,0.059090907997149,0.059090909398165
1.255,0.03725,0.057181818627095,0.019571428506702,0.014627705647918,0.057181818606267,0.014900000019333,0.014900000023061,0.057181817083953,0.057181818489063
1.26,0.037,0.0552727277189,0.019662337597569,0.014536796557556,0.055272727708674,0.014800000019906,0.014800000023106,0.055272726170974,0.05527272757994
1.265,0.03675,0.053363636810647,0.019753246688438,0.014445887467183,0.053363636810847,0.014700000020468,0.014700000023149,0.053363635258132,0.053363636670878
1.27,0.0365,0.051454545902322,0.01984415577931,0.014354978376799,0.051454545912778,0.014600000021017,0.014600000023187,0.051454544345405,0.051454545761797
1.275,0.03625,0.049545454993933,0.019935064870186,0.014264069286404,0.049545455014475,0.014500000021555,0.014500000023223,0.049545453432802,0.049545454852713
1.28,0.036,0.047636364085492,0.020025973961064,0.014173160195997,0.047636364115947,0.014400000022082,0.014400000023255,0.047636362520221,0.04763636394356
1.285,0.03575,0.045727273177,0.020116883051945,0.014082251105582,0.045727273217213,0.014300000022598,0.014300000023286,0.045727271607862,0.045727273034467
1.29,0.0355,0.043818182268466,0.020207792142827,0.013991342015156,0.043818182318278,0.014200000023105,0.014200000023314,0.043818180695625,0.043818182125432
1.295,0.03525,0.041909091359888,0.020298701233712,0.013900432924721,0.041909091419137,0.014100000023601,0.01410000002334,0.041909089783306,0.041909091216314
1.3,0.035,0.040000000451264,0.020389610324599,0.013809523834276,0.040000000519798,0.014000000024087,0.014000000023363,0.039999998871235,0.040000000307205
1.305,0.03475,0.038090909542611,0.020480519415487,0.013718614743823,0.03809090962028,0.013900000024565,0.013900000023385,0.038090907959176,0.038090909398168
1.31,0.0345,0.036181818633922,0.020571428506377,0.013627705653361,0.03618181872057,0.013800000025033,0.013800000023406,0.036181817047108,0.036181818489004
1.315,0.03425,0.034272727725203,0.020662337597268,0.01353679656289,0.03427272782069,0.013700000025493,0.013700000023425,0.03427272613537,0.034272727579988
1.32,0.034,0.032363636816453,0.020753246688161,0.013445887472411,0.032363636920632,0.013600000025943,0.013600000023442,0.032363635223467,0.032363636670913
1.325,0.03375,0.030454545907669,0.020844155779056,0.013354978381924,0.030454546020401,0.013500000026385,0.013500000023457,0.030454544311521,0.03045454576168
1.33,0.0335,0.028545454998875,0.020935064869951,0.013264069291429,0.028545455120013,0.013400000026819,0.013400000023472,0.028545453399861,0.028545454852662
1.335,0.03325,0.026636364090052,0.021025973960847,0.013173160200927,0.026636364219465,0.013300000027246,0.013300000023486,0.026636362488218,0.026636363943603
1.34,0.033,0.024727273181209,0.021116883051744,0.013082251110417,0.02472727331876,0.013200000027664,0.013200000023498,0.02472727157655,0.024727273034521
1.345,0.03275,0.022818182272343,0.021207792142643,0.0129913420199,0.022818182417906,0.013100000028075,0.013100000023509,0.022818180664999,0.022818182125378
1.35,0.0325,0.020909091363463,0.021298701233542,0.012900432929376,0.020909091516898,0.013000000028478,0.01300000002352,0.020909089753333,0.0209090912163
1.355,0.03225,0.019000000454564,0.021389610324442,0.012809523838845,0.019000000615752,0.012900000028875,0.01290000002353,0.018999998841973,0.019000000307225
1.36,0.032,0.017090909545652,0.021480519415342,0.012718614748308,0.017090909714464,0.012800000029264,0.012800000023539,0.017090907930519,0.017090909398151
1.365,0.03175,0.01518181863673,0.021571428506243,0.012627705657764,0.015181818813039,0.012700000029647,0.012700000023547,0.015181817018943,0.015181818489033
1.37,0.0315,0.013272727727788,0.021662337597145,0.012536796567213,0.013272727911476,0.012600000030022,0.012600000023555,0.013272726107647,0.013272727580009
1.375,0.03125,0.011363636818833,0.021753246688048,0.012445887476656,0.011363637009781,0.012500000030391,0.012500000023562,0.011363635196187,0.011363636670801
1.38,0.031,0.0094545459098694,0.021844155778951,0.012354978386093,0.0094545461079564,0.012400000030754,0.012400000023568,0.0094545442848754,0.0094545457617271
1.385,0.03075,0.007545455000904,0.021935064869854,0.012264069295525,0.0075454552060182,0.012300000031111,0.012300000023574,0.0075454533735378,0.0075454548526472
1.39,0.0305,0.005636364091916,0.022025973960758,0.01217316020495,0.0056363643039434,0.012200000031461,0.01220000002358,0.0056363624622858,0.0056363639435309
1.395,0.03025,0.0037272731829237,0.022116883051663,0.012082251114369,0.0037272734017527,0.012100000031805,0.012100000023585,0.0037272715511105,0.0037272730344604
1.4,0.03,0.0018181822739298,0.022207792142567,0.011991342023783,0.0018181824994411,0.012000000032143,0.01200000002359,0.0018181806398269,0.0018181821253839
1.405,0.02975,9.0908635084294e-05,0.022298701233472,0.011900432933191,9.090840299275e-05,0.011900000032475,0.011900000023594,-9.0910271386665e-05,-9.0908783768751e-05
1.41,0.0295,0.0019999995440881,0.022389610324377,0.011809523842594,0.0019999993055183,0.011800000032802,0.011800000023598,-0.0020000011824785,-0.0019999996928456
1.415,0.02925,0.0039090904531048,0.022480519415283,0.011718614751992,0.0039090902081646,0.011700000033124,0.011700000023602,-0.0039090920935455,-0.0039090906018554
1.42,0.029,0.0058181813621346,0.022571428506189,0.011627705661384,0.0058181811109274,0.011600000033439,0.011600000023605,-0.005818183004731,-0.0058181815110103
1.425,0.02875,0.0077272722711625,0.022662337597095,0.011536796570772,0.0077272720137925,0.01150000003375,0.011500000023608,-0.0077272739157552,-0.0077272724200599
1.43,0.0285,0.0096363631801916,0.022753246688001,0.011445887480155,0.0096363629167521,0.011400000034056,0.011400000023611,-0.0096363648267187,-0.0096363633291459
1.435,0.02825,0.011545454089245,0.022844155778909,0.011354978389532,0.011545453819835,0.011300000034355,0.011300000023613,-0.011545455737912,-0.011545454238341
1.44,0.028,0.013454544998273,0.022935064869815,0.011264069298905,0.013454544722996,0.011200000034651,0.011200000023616,-0.013454546648755,-0.013454545147289
1.445,0.02775,0.015363635907328,0.023025973960722,0.011173160208273,0.015363635626269,0.011100000034941,0.011100000023618,-0.015363637559798,-0.015363636056484
1.45,0.0275,0.017272726816376,0.023116883051629,0.011082251117636,0.017272726529637,0.011000000035226,0.01100000002362,-0.017272728470724,-0.017272726965559
1.455,0.02725,0.019181817725423,0.023207792142536,0.010991342026996,0.01918181743309,0.010900000035508,0.010900000023622,-0.019181819381633,-0.0191818178746
1.46,0.027,0.021090908634487,0.023298701233444,0.01090043293635,0.021090908336653,0.010800000035783,0.010800000023624,-0.021090910292427,-0.021090908783698
1.465,0.02675,0.022999999543543,0.023389610324352,0.0108095238457,0.022999999240296,0.010700000036055,0.010700000023625,-0.023000001203393,-0.02299999969286
1.47,0.0265,0.024909090452604,0.023480519415259,0.010718614755046,0.024909090144033,0.010600000036322,0.010600000023627,-0.024909092114244,-0.024909090601877
1.475,0.02625,0.026818181361669,0.023571428506167,0.010627705664388,0.026818181047857,0.010500000036584,0.010500000023628,-0.026818183025002,-0.026818181510965
1.48,0.026,0.028727272270731,0.023662337597075,0.010536796573726,0.028727271951763,0.010400000036843,0.01040000002363,-0.028727273935779,-0.028727272420045
1.485,0.02575,0.030636363179807,0.023753246687983,0.010445887483059,0.030636362855766,0.010300000037096,0.01030000002363,-0.03063636484658,-0.030636363329168
1.49,0.0255,0.032545454088874,0.023844155778891,0.010354978392388,0.032545453759845,0.010200000037346,0.010200000023632,-0.032545455757352,-0.032545454238224
1.495,0.02525,0.034454544997948,0.023935064869799,0.010264069301714,0.034454544664007,0.010100000037592,0.010100000023632,-0.034454546668134,-0.034454545147357
1.5,0.025000000000001,0.036363635907022,0.024025973960708,0.010173160211036,0.036363635568251,0.010000000037833,0.010000000023633,-0.03636363757878,-0.036363636056434
1.505,0.024750000000001,0.038272726816099,0.024116883051616,0.010082251120354,0.038272726472577,0.0099000000380709,0.009900000023634,-0.03827272848949,-0.038272726965531
1.51,0.024500000000001,0.040181817725171,0.024207792142524,0.009991342029668,0.040181817376972,0.009800000038305,0.009800000023635,-0.040181819400132,-0.040181817874605
1.515,0.024250000000001,0.042090908634252,0.024298701233433,0.0099004329389785,0.042090908281451,0.0097000000385348,0.0097000000236354,-0.042090910310803,-0.042090908783736
1.52,0.024000000000001,0.043999999543332,0.024389610324341,0.0098095238482856,0.043999999186004,0.0096000000387607,0.009600000023636,-0.044000001221516,-0.043999999692845
1.525,0.023750000000001,0.045909090452409,0.02448051941525,0.0097186147575892,0.045909090090626,0.0095000000389836,0.0095000000236368,-0.045909092131984,-0.04590909060187
1.53,0.023500000000001,0.047818181361492,0.024571428506159,0.0096277056668891,0.047818180995329,0.0094000000392024,0.0094000000236372,-0.04781818304254,-0.047818181510914
1.535,0.023250000000001,0.04972727227057,0.024662337597067,0.0095367965761861,0.049727271900093,0.0093000000394179,0.0093000000236378,-0.049727273953151,-0.049727272420077
1.54,0.023000000000001,0.051636363179658,0.024753246687976,0.0094458874854789,0.051636362804942,0.0092000000396291,0.0092000000236378,-0.051636364863729,-0.051636363329232
1.545,0.022750000000001,0.053545454088739,0.024844155778885,0.0093549783947692,0.053545453709846,0.0091000000398378,0.0091000000236383,-0.05354545577426,-0.053545454238332
1.55,0.022500000000001,0.055454544997823,0.024935064869793,0.0092640693040559,0.055454544614826,0.0090000000400428,0.0090000000236388,-0.055454546684664,-0.055454545147318
1.555,0.022250000000001,0.057363635906903,0.025025973960702,0.0091731602133395,0.05736363551987,0.0089000000402443,0.0089000000236394,-0.057363637595182,-0.057363636056391
1.56,0.022000000000001,0.059272726815995,0.025116883051611,0.0090822511226198,0.059272726424984,0.0088000000404425,0.0088000000236393,-0.059272728505603,-0.059272726965531
1.565,0.021750000000001,0.061181817725079,0.02520779214252,0.0089913420318975,0.061181817330152,0.008700000040638,0.0087000000236395,-0.061181819416042,-0.061181817874667
1.57,0.021500000000001,0.063090908634173,0.025298701233429,0.0089004329411714,0.063090908235401,0.0086000000408293,0.0086000000236393,-0.063090910326493,-0.063090908783788
1.575,0.021250000000001,0.064999999543255,0.025389610324338,0.0088095238504431,0.064999999140696,0.0085000000410185,0.0085000000236399,-0.065000001236841,-0.064999999692823
1.58,0.021000000000001,0.066909090452347,0.025480519415247,0.0087186147597113,0.066909090046063,0.0084000000412041,0.0084000000236398,-0.066909092147197,-0.066909090601937
1.585,0.020750000000001,0.068818181361425,0.025571428506155,0.0086277056689772,0.068818180951478,0.0083000000413871,0.0083000000236404,-0.068818183057631,-0.068818181511046
1.59,0.020500000000001,0.070727272270516,0.025662337597065,0.0085367965782399,0.070727271856962,0.0082000000415669,0.0082000000236405,-0.070727273967871,-0.070727272420093
1.595,0.020250000000001,0.072636363179605,0.025753246687974,0.0084458874874998,0.072636362762504,0.0081000000417437,0.0081000000236406,-0.07263636487819,-0.072636363329191
1.6,0.020000000000001,0.074545454088691,0.025844155778882,0.0083549783967573,0.074545453668097,0.008000000041918,0.0080000000236408,-0.074545455788502,-0.074545454238255
1.605,0.019750000000001,0.076454544997785,0.025935064869792,0.0082640693060117,0.076454544573755,0.007900000042089,0.0079000000236406,-0.076454546698766,-0.076454545147379
1.61,0.019500000000001,0.07836363590687,0.0260259739607,0.0081731602152636,0.078363635479465,0.0078000000422572,0.0078000000236409,-0.078363637609124,-0.07836363605647
1.615,0.019250000000001,0.080272726815959,0.026116883051609,0.0080822511245132,0.080272726385224,0.0077000000424235,0.007700000023641,-0.080272728519266,-0.08027272696554
1.62,0.019000000000001,0.082181817725053,0.026207792142519,0.0079913420337597,0.082181817291047,0.0076000000425862,0.0076000000236408,-0.0821818194295,-0.082181817874688
1.625,0.018750000000001,0.084090908634143,0.026298701233428,0.0079004329430039,0.084090908196919,0.0075000000427466,0.0075000000236409,-0.084090910339682,-0.084090908783744
1.63,0.018500000000001,0.085999999543231,0.026389610324337,0.0078095238522458,0.085999999102838,0.0074000000429046,0.007400000023641,-0.086000001249866,-0.085999999692834
1.635,0.018250000000001,0.087909090452323,0.026480519415246,0.0077186147614849,0.087909090008818,0.0073000000430595,0.007300000023641,-0.087909092160086,-0.087909090601932
1.64,0.018000000000001,0.089818181361412,0.026571428506155,0.0076277056707219,0.08981818091484,0.0072000000432125,0.0072000000236411,-0.089818183070199,-0.089818181511016
1.645,0.017750000000001,0.091727272270506,0.026662337597064,0.0075367965799563,0.091727271820917,0.0071000000433626,0.0071000000236409,-0.091727273980331,-0.091727272420099
1.65,0.017500000000001,0.093636363179594,0.026753246687973,0.0074458874891887,0.093636362727037,0.0070000000435105,0.007000000023641,-0.09363636489051,-0.093636363329228
1.655,0.017250000000001,0.095545454088688,0.026844155778882,0.0073549783984186,0.095545453633211,0.0069000000436559,0.0069000000236409,-0.095545455800591,-0.095545454238314
1.66,0.017000000000001,0.097454544997777,0.026935064869791,0.0072640693076466,0.097454544539423,0.0068000000437994,0.006800000023641,-0.097454546710594,-0.097454545147387
1.665,0.016750000000001,0.099363635906866,0.0270259739607,0.0071731602168721,0.099363635445687,0.0067000000439402,0.0067000000236411,-0.099363637620682,-0.099363636056463
1.67,0.016500000000001,0.10127272681596,0.027116883051609,0.0070822511260956,0.10127272635199,0.0066000000440791,0.0066000000236412,-0.10127272853071,-0.10127272696556
1.675,0.016250000000001,0.10318181772505,0.027207792142518,0.0069913420353166,0.10318181725835,0.0065000000442151,0.0065000000236411,-0.10318181944078,-0.10318181787465
1.68,0.016000000000001,0.10509090863414,0.027298701233428,0.0069004329445357,0.10509090816475,0.0064000000443492,0.0064000000236409,-0.1050909103508,-0.10509090878378
1.685,0.015750000000001,0.10699999954323,0.027389610324337,0.006809523853753,0.10699999907119,0.0063000000444814,0.006300000023641,-0.10700000126079,-0.10699999969287
1.69,0.015500000000001,0.10890909045232,0.027480519415246,0.006718614762968,0.10890908997767,0.0062000000446113,0.0062000000236411,-0.10890909217075,-0.10890909060192
1.695,0.015250000000001,0.11081818136142,0.027571428506155,0.0066277056721809,0.1108181808842,0.0061000000447389,0.0061000000236409,-0.11081818308073,-0.11081818151103
1.7,0.015000000000001,0.1127272722705,0.027662337597064,0.006536796581392,0.11272727179077,0.0060000000448647,0.006000000023641,-0.11272727399068,-0.11272727242011
1.705,0.014750000000001,0.1146363631796,0.027753246687973,0.0064458874906011,0.11463636269738,0.0059000000449884,0.0059000000236408,-0.11463636490059,-0.1146363633292
1.71,0.014500000000001,0.11654545408869,0.027844155778882,0.0063549783998084,0.11654545360402,0.0058000000451101,0.0058000000236408,-0.11654545581054,-0.11654545423831
1.715,0.014250000000001,0.11845454499778,0.027935064869792,0.0062640693090136,0.11845454451071,0.0057000000452299,0.0057000000236407,-0.11845454672041,-0.11845454514738
1.72,0.014000000000001,0.12036363590687,0.028025973960701,0.0061731602182172,0.12036363541744,0.0056000000453476,0.0056000000236407,-0.12036363763034,-0.12036363605646
1.725,0.013750000000001,0.12227272681596,0.02811688305161,0.006082251127419,0.1222727263242,0.0055000000454638,0.0055000000236407,-0.12227272854018,-0.12227272696556
1.73,0.013500000000001,0.12418181772506,0.028207792142519,0.0059913420366186,0.12418181723101,0.0054000000455775,0.0054000000236404,-0.12418181945008,-0.12418181787466
1.735,0.013250000000001,0.12609090863415,0.028298701233428,0.0059004329458169,0.12609090813785,0.0053000000456899,0.0053000000236404,-0.12609091035989,-0.12609090878374
1.74,0.013000000000001,0.12799999954325,0.028389610324337,0.0058095238550132,0.12799999904472,0.0052000000458002,0.0052000000236402,-0.12800000126974,-0.12799999969283
1.745,0.012750000000001,0.12990909045234,0.028480519415246,0.0057186147642081,0.12990908995163,0.0051000000459089,0.0051000000236403,-0.1299090921796,-0.12990909060196
1.75,0.012500000000001,0.13181818136143,0.028571428506156,0.0056277056734009,0.13181818085858,0.0050000000460156,0.0050000000236401,-0.13181818308942,-0.13181818151104
1.755,0.012250000000001,0.13372727227052,0.028662337597065,0.0055367965825925,0.13372727176556,0.004900000046121,0.0049000000236401,-0.13372727399921,-0.13372727242013
1.76,0.012000000000001,0.13563636317961,0.028753246687974,0.0054458874917824,0.13563636267257,0.0048000000462246,0.0048000000236401,-0.13563636490899,-0.13563636332922
1.765,0.011750000000001,0.13754545408871,0.028844155778883,0.0053549784009706,0.13754545357962,0.0047000000463265,0.00470000002364,-0.13754545581872,-0.13754545423829
1.77,0.011500000000001,0.13945454499779,0.028935064869792,0.0052640693101575,0.13945454448669,0.004600000046427,0.0046000000236402,-0.13945454672847,-0.13945454514737
1.775,0.011250000000001,0.14136363590689,0.029025973960701,0.0051731602193423,0.14136363539381,0.0045000000465253,0.0045000000236398,-0.14136363763825,-0.14136363605651
1.78,0.011000000000001,0.14327272681598,0.029116883051611,0.005082251128526,0.14327272630095,0.0044000000466224,0.0044000000236398,-0.14327272854798,-0.14327272696559
1.785,0.010750000000001,0.14518181772507,0.029207792142519,0.0049913420377083,0.14518181720812,0.0043000000467181,0.00430000002364,-0.14518181945769,-0.14518181787466
1.79,0.010500000000001,0.14709090863416,0.029298701233429,0.0049004329468888,0.14709090811533,0.0042000000468118,0.0042000000236397,-0.14709091036742,-0.14709090878377
1.795,0.010250000000001,0.14899999954326,0.029389610324338,0.004809523856068,0.14899999902257,0.0041000000469041,0.0041000000236396,-0.14900000127715,-0.14899999969287
1.8,0.010000000000001,0.15090909045235,0.029480519415247,0.004718614765246,0.15090908992983,0.0040000000469955,0.0040000000236397,-0.15090909218676,-0.15090909060194
1.805,0.0097500000000008,0.15281818136144,0.029571428506156,0.0046277056744221,0.15281818083714,0.0039000000470846,0.0039000000236394,-0.15281818309648,-0.15281818151106
1.81,0.0095000000000008,0.15472727227053,0.029662337597065,0.0045367965835973,0.15472727174446,0.0038000000471729,0.0038000000236396,-0.15472727400614,-0.15472727242013
1.815,0.0092500000000008,0.15663636317963,0.029753246687975,0.0044458874927709,0.15663636265181,0.0037000000472595,0.0037000000236394,-0.15663636491578,-0.15663636332922
1.82,0.0090000000000008,0.15854545408872,0.029844155778884,0.0043549784019433,0.15854545355919,0.0036000000473448,0.0036000000236393,-0.15854545582543,-0.15854545423832
1.825,0.0087500000000008,0.16045454499781,0.029935064869793,0.0042640693111141,0.16045454446661,0.0035000000474284,0.0035000000236391,-0.16045454673507,-0.1604545451474
1.83,0.0085000000000009,0.16236363590691,0.030025973960702,0.004173160220284,0.16236363537404,0.0034000000475112,0.003400000023639,-0.16236363764467,-0.1623636360565
1.835,0.0082500000000009,0.164272726816,0.030116883051611,0.0040822511294526,0.1642727262815,0.0033000000475925,0.0033000000236391,-0.16427272855429,-0.16427272696559
1.84,0.0080000000000009,0.1661818177251,0.030207792142521,0.0039913420386195,0.16618181718899,0.003200000047672,0.0032000000236387,-0.1661818194639,-0.16618181787468
1.845,0.0077500000000009,0.16809090863418,0.03029870123343,0.0039004329477858,0.1680909080965,0.003100000047751,0.0031000000236389,-0.16809091037348,-0.16809090878378
1.85,0.0075000000000009,0.16999999954327,0.030389610324339,0.0038095238569505,0.16999999900404,0.0030000000478284,0.0030000000236388,-0.17000000128307,-0.16999999969286
1.855,0.0072500000000009,0.17190909045237,0.030480519415248,0.003718614766114,0.17190908991161,0.0029000000479044,0.0029000000236386,-0.17190909219266,-0.17190909060197
1.86,0.0070000000000009,0.17381818136146,0.030571428506157,0.0036277056752767,0.17381818081919,0.0028000000479796,0.0028000000236387,-0.1738181831022,-0.17381818151105
1.865,0.0067500000000009,0.17572727227055,0.030662337597066,0.0035367965844378,0.17572727172681,0.0027000000480531,0.0027000000236385,-0.17572727401178,-0.17572727242016
1.87,0.0065000000000009,0.17763636317965,0.030753246687976,0.003445887493598,0.17763636263444,0.0026000000481256,0.0026000000236383,-0.17763636492134,-0.17763636332924
1.875,0.0062500000000009,0.17954545408874,0.030844155778884,0.0033549784027573,0.1795454535421,0.0025000000481973,0.0025000000236385,-0.17954545583084,-0.17954545423833
1.88,0.0060000000000009,0.18145454499783,0.030935064869794,0.003264069311915,0.18145454444979,0.0024000000482672,0.0024000000236381,-0.18145454674039,-0.18145454514744
1.885,0.0057500000000009,0.18336363590692,0.031025973960703,0.0031731602210722,0.18336363535748,0.0023000000483368,0.0023000000236385,-0.18336363764987,-0.18336363605649
1.89,0.0055000000000009,0.18527272681602,0.031116883051612,0.0030822511302276,0.18527272626522,0.0022000000484042,0.0022000000236378,-0.18527272855942,-0.18527272696561
1.895,0.0052500000000009,0.1871818177251,0.031207792142521,0.0029913420393828,0.18718181717296,0.0021000000484717,0.0021000000236382,-0.18718181946891,-0.1871818178747
1.9,0.0050000000000009,0.1890909086342,0.03129870123343,0.0029004329485364,0.18909090808074,0.0020000000485374,0.0020000000236379,-0.18909091037838,-0.18909090878378
1.905,0.0047500000000009,0.19099999954329,0.03138961032434,0.0028095238576891,0.19099999898853,0.001900000048602,0.0019000000236378,-0.19100000128789,-0.19099999969289
1.91,0.0045000000000009,0.19290909045239,0.031480519415249,0.0027186147668407,0.19290908989634,0.0018000000486657,0.0018000000236376,-0.19290909219736,-0.19290909060198
1.915,0.0042500000000009,0.19481818136148,0.031571428506158,0.0026277056759919,0.19481818080417,0.0017000000487289,0.0017000000236378,-0.19481818310682,-0.19481818151106
1.92,0.0040000000000009,0.19672727227057,0.031662337597067,0.0025367965851416,0.19672727171203,0.0016000000487905,0.0016000000236376,-0.19672727401629,-0.19672727242015
1.925,0.003750000000001,0.19863636317966,0.031753246687976,0.0024458874942904,0.1986363626199,0.0015000000488512,0.0015000000236375,-0.19863636492574,-0.19863636332925
1.93,0.003500000000001,0.20054545408875,0.031844155778885,0.0023549784034385,0.20054545352779,0.0014000000489111,0.0014000000236375,-0.20054545583519,-0.20054545423834
1.935,0.003250000000001,0.20245454499785,0.031935064869795,0.0022640693125853,0.20245454443571,0.0013000000489697,0.0013000000236372,-0.20245454674463,-0.20245454514743
1.94,0.003000000000001,0.20436363590694,0.032025973960704,0.0021731602217316,0.20436363534364,0.0012000000490278,0.0012000000236373,-0.20436363765406,-0.20436363605653
1.945,0.002750000000001,0.20627272681604,0.032116883051613,0.0020822511308767,0.20627272625159,0.0011000000490846,0.001100000023637,-0.20627272856347,-0.20627272696562
1.95,0.002500000000001,0.20818181772512,0.032207792142522,0.0019913420400214,0.20818181715955,0.001000000049141,0.0010000000236372,-0.2081818194729,-0.20818181787471
1.955,0.002250000000001,0.21009090863421,0.032298701233431,0.001900432949165,0.21009090806753,0.00090000004919624,0.0009000000236372,-0.2100909103823,-0.2100909087838
1.96,0.002000000000001,0.21199999954331,0.03238961032434,0.0018095238583077,0.21199999897554,0.00080000004925054,0.00080000002363716,-0.21200000129171,-0.21199999969288
1.965,0.001750000000001,0.2139090904524,0.032480519415249,0.0017186147674496,0.21390908988356,0.00070000004930399,0.00070000002363705,-0.2139090922011,-0.21390909060197
1.97,0.001500000000001,0.2158181813615,0.032571428506159,0.0016277056765902,0.21581818079161,0.00060000004935605,0.00060000002363654,-0.21581818311051,-0.21581818151108
1.975,0.001250000000001,0.21772727227059,0.032662337597068,0.0015367965857308,0.21772727169965,0.00050000004940825,0.00050000002363679,-0.21772727401987,-0.21772727242016
1.98,0.001000000000001,0.21963636317967,0.032753246687977,0.0014458874948705,0.21963636260772,0.00040000004945933,0.00040000002363702,-0.21963636492926,-0.21963636332925
1.985,0.00075000000000101,0.22154545408878,0.032844155778887,0.0013549784040085,0.22154545351582,0.00030000004950871,0.00030000002363619,-0.22154545583865,-0.22154545423836
1.99,0.00050000000000102,0.22345454499787,0.032935064869795,0.0012640693131467,0.22345454442392,0.00020000004955837,0.00020000002363639,-0.223454546748,-0.22345454514744
1.995,0.00025000000000103,0.22536363590696,0.033025973960705,0.001173160222284,0.22536363533204,0.000100000049607,0.00010000002363648,-0.22536363765737,-0.22536363605653
2,1.0338951916822e-15,0.22727272681604,0.033116883051613,0.0010822511314207,0.22727272624017,4.9655079925417e-11,2.3636685616185e-11,-0.22727272856671,-0.22727272696562
2.005,-0.00024999999999897,0.22918181772514,0.033207792142523,0.00099134204055625,0.22918181714832,-9.999995029812e-05,-9.9999976363605e-05,-0.22918181947606,-0.22918181787472
2.01,-0.00049999999999897,0.23109090863423,0.033298701233432,0.00090043294969112,0.23109090805649,-0.00019999995025201,-0.00019999997636373,-0.23109091038542,-0.23109090878381
2.015,-0.00074999999999896,0.23299999954331,0.033389610324341,0.00080952385882583,0.23299999896466,-0.00029999995020605,-0.0002999999763633,-0.23300000129475,-0.23299999969289
2.02,-0.00099999999999896,0.2349090904524,0.03348051941525,0.0007186147679597,0.23490908987285,-0.00039999995016098,-0.00039999997636303,-0.23490909220409,-0.23490909060197
2.025,-0.001249999999999,0.23681818136149,0.033571428506159,0.00062770567709263,0.23681818078106,-0.00049999995011687,-0.00049999997636314,-0.23681818311341,-0.23681818151107
2.03,-0.0014999999999989,0.23872727227059,0.033662337597068,0.00053679658622466,0.23872727168928,-0.00059999995007374,-0.00059999997636338,-0.23872727402273,-0.23872727242017
2.035,-0.0017499999999989,0.24063636317968,0.033753246687977,0.00044588749535647,0.24063636259751,-0.0006999999500308,-0.00069999997636326,-0.24063636493204,-0.24063636332926
2.04,-0.0019999999999989,0.24254545408877,0.033844155778886,0.00035497840448726,0.24254545350577,-0.00079999994998897,-0.00079999997636334,-0.24254545584137,-0.24254545423835
2.045,-0.0022499999999989,0.24445454499785,0.033935064869795,0.0002640693136179,0.24445454441402,-0.00089999994994727,-0.00089999997636298,-0.24445454675068,-0.24445454514743
2.05,-0.0024999999999989,0.24636363590695,0.034025973960704,0.00017316022274751,0.2463636353223,-0.00099999994990663,-0.00099999997636311,-0.24636363765997,-0.24636363605653
2.055,-0.0027499999999989,0.24827272681604,0.034116883051613,8.2251131876742e-05,0.24827272623059,-0.0010999999498664,-0.001099999976363,-0.24827272856927,-0.24827272696562
2.06,-0.0029999999999989,0.25018181772513,0.034207792142522,8.6579589949342e-06,0.25018181713889,-0.0011999999498271,-0.0011999999763631,-0.25018181947857,-0.25018181787472
2.065,-0.0032499999999989,0.25209090863421,0.034298701233431,9.9567049866574e-05,0.2520909080472,-0.0012999999497878,-0.0012999999763624,-0.25209091038787,-0.25209090878379
2.07,-0.0034999999999989,0.2539999995433,0.03438961032434,0.00019047614073933,0.25399999895553,-0.0013999999497496,-0.0013999999763626,-0.25400000129713,-0.25399999969289
2.075,-0.0037499999999989,0.25590909045239,0.034480519415249,0.00028138523161261,0.25590908986386,-0.0014999999497121,-0.0014999999763625,-0.25590909220642,-0.25590909060197
2.08,-0.0039999999999989,0.25781818136148,0.034571428506158,0.00037229432248626,0.25781818077221,-0.0015999999496749,-0.0015999999763623,-0.25781818311569,-0.25781818151107
2.085,-0.0042499999999989,0.25972727227057,0.034662337597067,0.00046320341336074,0.25972727168058,-0.0016999999496385,-0.0016999999763624,-0.25972727402494,-0.25972727242015
2.09,-0.0044999999999989,0.26163636317966,0.034753246687976,0.00055411250423585,0.26163636258895,-0.0017999999496028,-0.0017999999763624,-0.26163636493424,-0.26163636332925
2.095,-0.0047499999999989,0.26354545408875,0.034844155778885,0.00064502159511106,0.26354545349733,-0.0018999999495672,-0.0018999999763621,-0.2635454558435,-0.26354545423834
2.1,-0.0049999999999989,0.26545454499784,0.034935064869794,0.00073593068598754,0.26545454440574,-0.001999999949533,-0.0019999999763625,-0.26545454675277,-0.26545454514745
2.105,-0.0052499999999989,0.26736363590692,0.035025973960703,0.0008268397768635,0.26736363531413,-0.0020999999494982,-0.0020999999763618,-0.26736363766199,-0.2673636360565
2.11,-0.0054999999999989,0.26927272681602,0.035116883051612,0.00091774886774064,0.26927272622255,-0.0021999999494646,-0.0021999999763619,-0.26927272857125,-0.2692727269656
2.115,-0.0057499999999989,0.2711818177251,0.035207792142521,0.0010086579586181,0.27118181713098,-0.0022999999494314,-0.0022999999763617,-0.27118181948049,-0.27118181787469
2.12,-0.0059999999999989,0.2730909086342,0.03529870123343,0.0010995670494966,0.27309090803943,-0.0023999999493993,-0.0023999999763621,-0.27309091038975,-0.2730909087838
2.125,-0.0062499999999988,0.27499999954329,0.035389610324339,0.0011904761403749,0.27499999894787,-0.0024999999493669,-0.0024999999763618,-0.27500000129898,-0.27499999969287
2.13,-0.0064999999999988,0.27690909045237,0.035480519415248,0.0012813852312535,0.27690908985632,-0.0025999999493348,-0.0025999999763612,-0.2769090922082,-0.27690909060194
2.135,-0.0067499999999988,0.27881818136146,0.035571428506157,0.0013722943221333,0.2788181807648,-0.002699999949304,-0.0026999999763613,-0.27881818311745,-0.27881818151103
2.14,-0.0069999999999988,0.28072727227055,0.035662337597066,0.001463203413013,0.28072727167327,-0.0027999999492731,-0.0027999999763612,-0.28072727402664,-0.28072727242014
2.145,-0.0072499999999988,0.28263636317964,0.035753246687975,0.0015541125038938,0.28263636258177,-0.0028999999492434,-0.0028999999763613,-0.2826363649359,-0.28263636332924
2.15,-0.0074999999999988,0.28454545408873,0.035844155778884,0.0016450215947748,0.28454545349027,-0.0029999999492139,-0.0029999999763613,-0.28454545584511,-0.28454545423831
2.155,-0.0077499999999988,0.28645454499782,0.035935064869793,0.001735930685656,0.28645454439878,-0.0030999999491846,-0.0030999999763611,-0.28645454675434,-0.28645454514741
2.16,-0.0079999999999988,0.28836363590691,0.036025973960702,0.0018268397765381,0.2883636353073,-0.0031999999491562,-0.0031999999763613,-0.28836363766355,-0.2883636360565
2.165,-0.0082499999999988,0.29027272681599,0.036116883051611,0.0019177488674199,0.29027272621582,-0.0032999999491275,-0.0032999999763609,-0.29027272857277,-0.2902727269656
2.17,-0.0084999999999988,0.29218181772509,0.03620779214252,0.0020086579583028,0.29218181712436,-0.0033999999490999,-0.003399999976361,-0.29218181948196,-0.29218181787467
2.175,-0.0087499999999988,0.29409090863418,0.03629870123343,0.002099567049186,0.29409090803291,-0.0034999999490728,-0.0034999999763611,-0.29409091039121,-0.29409090878379
2.18,-0.0089999999999988,0.29599999954326,0.036389610324338,0.002190476140069,0.29599999894145,-0.0035999999490453,-0.0035999999763605,-0.29600000130039,-0.29599999969286
2.185,-0.0092499999999988,0.29790909045236,0.036480519415247,0.0022813852309533,0.29790908985002,-0.0036999999490193,-0.0036999999763607,-0.2979090922096,-0.29790909060195
2.19,-0.0094999999999988,0.29981818136145,0.036571428506157,0.0023722943218377,0.29981818075859,-0.0037999999489933,-0.0037999999763608,-0.29981818311879,-0.29981818151104
2.195,-0.0097499999999988,0.30172727227053,0.036662337597065,0.0024632034127218,0.30172727166716,-0.003899999948967,-0.0038999999763602,-0.30172727402797,-0.30172727242013
2.2,-0.0099999999999988,0.30363636317962,0.036753246687974,0.0025541125036072,0.30363636257575,-0.0039999999489421,-0.0039999999763604,-0.30363636493716,-0.30363636332922
2.205,-0.010249999999999,0.30554545408872,0.036844155778884,0.0026450215944931,0.30554545348435,-0.0040999999489176,-0.0040999999763606,-0.30554545584635,-0.3055454542383
2.21,-0.010499999999999,0.30745454499781,0.036935064869793,0.0027359306853788,0.30745454439295,-0.004199999948893,-0.0041999999763605,-0.30745454675556,-0.30745454514742
2.215,-0.010749999999999,0.30936363590689,0.037025973960701,0.0028268397762647,0.30936363530156,-0.0042999999488687,-0.0042999999763602,-0.30936363766473,-0.3093636360565
2.22,-0.010999999999999,0.31127272681598,0.03711688305161,0.0029177488671514,0.31127272621018,-0.0043999999488451,-0.0043999999763601,-0.31127272857393,-0.31127272696558
2.225,-0.011249999999999,0.31318181772507,0.037207792142519,0.0030086579580382,0.3131818171188,-0.0044999999488216,-0.00449999997636,-0.31318181948309,-0.31318181787467
2.23,-0.011499999999999,0.31509090863416,0.037298701233428,0.0030995670489255,0.31509090802744,-0.0045999999487987,-0.0045999999763598,-0.31509091039228,-0.31509090878374
2.235,-0.011749999999999,0.31699999954325,0.037389610324337,0.0031904761398133,0.31699999893608,-0.0046999999487763,-0.0046999999763599,-0.31700000130148,-0.31699999969286
2.24,-0.011999999999999,0.31890909045234,0.037480519415246,0.0032813852307011,0.31890908984472,-0.0047999999487538,-0.0047999999763596,-0.31890909221059,-0.31890909060192
2.245,-0.012249999999999,0.32081818136143,0.037571428506156,0.0033722943215896,0.32081818075338,-0.0048999999487322,-0.0048999999763599,-0.32081818311976,-0.32081818151102
2.25,-0.012499999999999,0.32272727227052,0.037662337597065,0.0034632034124779,0.32272727166204,-0.0049999999487104,-0.0049999999763596,-0.32272727402898,-0.32272727242015
2.255,-0.012749999999999,0.32463636317961,0.037753246687974,0.0035541125033673,0.32463636257071,-0.0050999999486895,-0.0050999999763597,-0.32463636493812,-0.32463636332922
2.26,-0.012999999999999,0.32654545408869,0.037844155778882,0.0036450215942561,0.32654545347938,-0.0051999999486682,-0.0051999999763592,-0.32654545584729,-0.3265454542383
2.265,-0.013249999999999,0.32845454499778,0.037935064869792,0.003735930685146,0.32845454438807,-0.0052999999486481,-0.0052999999763594,-0.3284545467565,-0.32845454514741
2.27,-0.013499999999999,0.33036363590688,0.038025973960701,0.003826839776036,0.33036363529676,-0.0053999999486279,-0.0053999999763594,-0.33036363766562,-0.33036363605649
2.275,-0.013749999999999,0.33227272681597,0.03811688305161,0.0039177488669262,0.33227272620545,-0.0054999999486079,-0.0054999999763594,-0.33227272857475,-0.33227272696558
2.28,-0.013999999999999,0.33418181772505,0.038207792142519,0.0040086579578167,0.33418181711415,-0.0055999999485885,-0.0055999999763594,-0.33418181948399,-0.33418181787471
2.285,-0.014249999999999,0.33609090863415,0.038298701233428,0.0040995670487075,0.33609090802286,-0.0056999999485691,-0.0056999999763593,-0.33609091039307,-0.33609090878374
2.29,-0.014499999999999,0.33799999954322,0.038389610324336,0.004190476139598,0.33799999893156,-0.0057999999485495,-0.0057999999763586,-0.33800000130218,-0.33799999969281
2.295,-0.014749999999999,0.33990909045232,0.038480519415246,0.0042813852304899,0.33990908984029,-0.0058999999485314,-0.0058999999763591,-0.33990909221135,-0.33990909060193
2.3,-0.014999999999999,0.3418181813614,0.038571428506154,0.0043722943213811,0.341818180749,-0.0059999999485126,-0.0059999999763585,-0.3418181831205,-0.341818181511
2.305,-0.015249999999999,0.3437272722705,0.038662337597064,0.0044632034122733,0.34372727165774,-0.0060999999484947,-0.0060999999763586,-0.34372727402965,-0.3437272724201
2.31,-0.015499999999999,0.34563636317959,0.038753246687973,0.0045541125031654,0.34563636256647,-0.0061999999484768,-0.0061999999763584,-0.34563636493879,-0.34563636332917
2.315,-0.015749999999999,0.34754545408867,0.038844155778882,0.0046450215940578,0.34754545347521,-0.0062999999484593,-0.0062999999763583,-0.34754545584794,-0.34754545423825
2.32,-0.015999999999999,0.34945454499776,0.038935064869791,0.0047359306849505,0.34945454438396,-0.0063999999484421,-0.0063999999763583,-0.34945454675712,-0.3494545451474
2.325,-0.016249999999999,0.35136363590686,0.0390259739607,0.0048268397758439,0.35136363529272,-0.0064999999484254,-0.0064999999763586,-0.35136363766622,-0.35136363605646
2.33,-0.016499999999999,0.35327272681594,0.039116883051609,0.0049177488667367,0.35327272620147,-0.0065999999484084,-0.0065999999763581,-0.35327272857539,-0.35327272696558
2.335,-0.016749999999999,0.35518181772503,0.039207792142518,0.0050086579576303,0.35518181711024,-0.006699999948392,-0.0066999999763582,-0.35518181948454,-0.35518181787467
2.34,-0.016999999999999,0.35709090863411,0.039298701233426,0.0050995670485236,0.357090908019,-0.0067999999483753,-0.0067999999763576,-0.35709091039364,-0.35709090878373
2.345,-0.017249999999999,0.35899999954321,0.039389610324336,0.0051904761394178,0.35899999892777,-0.0068999999483596,-0.0068999999763577,-0.3590000013028,-0.35899999969284
2.35,-0.017499999999999,0.3609090904523,0.039480519415245,0.0052813852303124,0.36090908983656,-0.0069999999483443,-0.006999999976358,-0.36090909221193,-0.36090909060193
2.355,-0.017749999999999,0.36281818136139,0.039571428506154,0.0053722943212067,0.36281818074534,-0.0070999999483287,-0.0070999999763578,-0.36281818312104,-0.36281818151102
2.36,-0.017999999999999,0.36472727227048,0.039662337597063,0.0054632034121015,0.36472727165413,-0.0071999999483136,-0.0071999999763578,-0.36472727403018,-0.3647272724201
2.365,-0.018249999999999,0.36663636317956,0.039753246687972,0.0055541125029962,0.36663636256292,-0.0072999999482986,-0.0072999999763575,-0.36663636493936,-0.3666363633292
2.37,-0.018499999999999,0.36854545408864,0.03984415577888,0.0056450215938907,0.3685454534717,-0.007399999948283,-0.0073999999763566,-0.3685454558484,-0.36854545423823
2.375,-0.018749999999999,0.37045454499774,0.03993506486979,0.0057359306847865,0.37045454438052,-0.0074999999482691,-0.0074999999763572,-0.37045454675758,-0.37045454514737
2.38,-0.018999999999999,0.37236363590684,0.040025973960699,0.0058268397756825,0.37236363528933,-0.0075999999482552,-0.0075999999763574,-0.3723636376667,-0.37236363605647
2.385,-0.019249999999999,0.37427272681592,0.040116883051608,0.005917748866578,0.37427272619814,-0.0076999999482409,-0.0076999999763571,-0.37427272857584,-0.37427272696556
2.39,-0.019499999999999,0.37618181772502,0.040207792142517,0.0060086579574741,0.37618181710696,-0.0077999999482272,-0.0077999999763572,-0.3761818194849,-0.37618181787462
2.395,-0.019749999999999,0.3780909086341,0.040298701233426,0.0060995670483699,0.37809090801577,-0.007899999948213,-0.0078999999763567,-0.37809091039401,-0.37809090878372
2.4,-0.019999999999999,0.37999999954319,0.040389610324335,0.0061904761392666,0.3799999989246,-0.0079999999482002,-0.0079999999763568,-0.3800000013032,-0.37999999969281
2.405,-0.020249999999999,0.3819090904523,0.040480519415244,0.0062813852301639,0.38190908983344,-0.0080999999481877,-0.0080999999763576,-0.3819090922123,-0.38190909060195
2.41,-0.020499999999999,0.38381818136137,0.040571428506153,0.0063722943210599,0.38381818074226,-0.0081999999481736,-0.0081999999763565,-0.38381818312132,-0.38381818151093
2.415,-0.020749999999999,0.38572727227046,0.040662337597062,0.0064632034119572,0.3857272716511,-0.0082999999481614,-0.008299999976357,-0.38572727403053,-0.38572727242012
2.42,-0.020999999999999,0.38763636317954,0.040753246687971,0.006554112502854,0.38763636255993,-0.0083999999481483,-0.0083999999763563,-0.38763636493961,-0.38763636332914
2.425,-0.021249999999999,0.38954545408864,0.04084415577888,0.0066450215937517,0.38954545346879,-0.0084999999481362,-0.0084999999763567,-0.38954545584871,-0.38954545423825
2.43,-0.021499999999999,0.39145454499772,0.040935064869789,0.0067359306846492,0.39145454437763,-0.008599999948124,-0.0085999999763561,-0.39145454675784,-0.39145454514732
2.435,-0.021749999999999,0.39336363590682,0.041025973960698,0.0068268397755471,0.39336363528649,-0.0086999999481123,-0.0086999999763565,-0.39336363766697,-0.39336363605643
2.44,-0.021999999999999,0.39527272681591,0.041116883051607,0.0069177488664451,0.39527272619535,-0.0087999999481006,-0.0087999999763567,-0.39527272857612,-0.39527272696559
2.445,-0.022249999999999,0.39718181772499,0.041207792142516,0.0070086579573425,0.39718181710419,-0.0088999999480881,-0.0088999999763559,-0.39718181948516,-0.39718181787463
2.45,-0.022499999999998,0.39909090863409,0.041298701233425,0.0070995670482412,0.39909090801307,-0.0089999999480773,-0.0089999999763563,-0.39909091039433,-0.39909090878377
2.455,-0.022749999999998,0.40099999954318,0.041389610324334,0.0071904761391398,0.40099999892194,-0.009099999948066,-0.0090999999763561,-0.40100000130338,-0.40099999969278
2.46,-0.022999999999998,0.40290909045226,0.041480519415243,0.0072813852300379,0.4029090898308,-0.0091999999480544,-0.0091999999763557,-0.40290909221247,-0.40290909060187
2.465,-0.023249999999998,0.40481818136136,0.041571428506152,0.007372294320937,0.40481818073968,-0.0092999999480439,-0.0092999999763562,-0.40481818312161,-0.40481818151102
2.47,-0.023499999999998,0.40672727227045,0.041662337597062,0.0074632034118365,0.40672727164857,-0.0093999999480338,-0.0093999999763565,-0.40672727403074,-0.40672727242013
2.475,-0.023749999999998,0.40863636317952,0.04175324668797,0.0075541125027347,0.40863636255743,-0.0094999999480222,-0.0094999999763554,-0.40863636493984,-0.40863636332919
2.48,-0.023999999999998,0.41054545408862,0.041844155778879,0.0076450215936345,0.41054545346632,-0.0095999999480125,-0.0095999999763557,-0.41054545584897,-0.41054545423825
2.485,-0.024249999999998,0.41245454499772,0.041935064869789,0.0077359306845343,0.41245454437522,-0.0096999999480026,-0.0096999999763562,-0.41245454675805,-0.41245454514736
2.49,-0.024499999999998,0.4143636359068,0.042025973960697,0.0078268397754334,0.4143636352841,-0.0097999999479921,-0.0097999999763557,-0.41436363766716,-0.41436363605646
2.495,-0.024749999999998,0.41627272681589,0.042116883051606,0.0079177488663327,0.41627272619299,-0.0098999999479817,-0.0098999999763553,-0.41627272857624,-0.41627272696552
2.5,-0.024999999999998,0.41818181772498,0.042207792142515,0.008008657957233,0.41818181710189,-0.0099999999479724,-0.0099999999763554,-0.41818181948534,-0.41818181787461
2.505,-0.025249999999998,0.42009090863407,0.042298701233424,0.008099567048133,0.42009090801079,-0.010099999947963,-0.010099999976356,-0.42009091039447,-0.42009090878375
2.51,-0.025499999999998,0.42199999954316,0.042389610324333,0.008190476139033,0.42199999891969,-0.010199999947953,-0.010199999976355,-0.42200000130358,-0.42199999969281
2.515,-0.025749999999998,0.42390909045225,0.042480519415242,0.0082813852299334,0.4239090898286,-0.010299999947944,-0.010299999976355,-0.42390909221269,-0.4239090906019
2.52,-0.025999999999998,0.42581818136134,0.042571428506151,0.0083722943208338,0.42581818073751,-0.010399999947935,-0.010399999976355,-0.42581818312181,-0.42581818151103
2.525,-0.026249999999998,0.42772727227042,0.04266233759706,0.0084632034117342,0.42772727164642,-0.010499999947925,-0.010499999976355,-0.42772727403075,-0.42772727241999
2.53,-0.026499999999998,0.42963636317951,0.042753246687969,0.0085541125026346,0.42963636255533,-0.010599999947916,-0.010599999976354,-0.42963636493993,-0.42963636332915
2.535,-0.026749999999998,0.4315454540886,0.042844155778878,0.0086450215935355,0.43154545346425,-0.010699999947908,-0.010699999976354,-0.43154545584903,-0.43154545423824
2.54,-0.026999999999998,0.43345454499769,0.042935064869787,0.0087359306844365,0.43345454437317,-0.010799999947899,-0.010799999976354,-0.43345454675816,-0.43345454514738
2.545,-0.027249999999998,0.43536363590678,0.043025973960696,0.0088268397753375,0.43536363528209,-0.010899999947891,-0.010899999976354,-0.43536363766724,-0.43536363605645
2.55,-0.027499999999998,0.43727272681587,0.043116883051605,0.0089177488662389,0.43727272619102,-0.010999999947882,-0.010999999976355,-0.43727272857626,-0.4372727269655
2.555,-0.027749999999998,0.43918181772496,0.043207792142514,0.00900865795714,0.43918181709994,-0.011099999947874,-0.011099999976354,-0.43918181948545,-0.43918181787463
2.56,-0.027999999999998,0.44109090863405,0.043298701233423,0.0090995670480418,0.44109090800888,-0.011199999947866,-0.011199999976355,-0.44109091039455,-0.44109090878373
2.565,-0.028249999999998,0.44299999954313,0.043389610324332,0.0091904761389432,0.44299999891781,-0.011299999947858,-0.011299999976354,-0.44300000130363,-0.44299999969276
2.57,-0.028499999999998,0.44490909045223,0.043480519415242,0.0092813852298451,0.44490908982675,-0.011399999947851,-0.011399999976354,-0.44490909221276,-0.44490909060192
2.575,-0.028749999999998,0.44681818136131,0.04357142850615,0.0093722943207469,0.44681818073568,-0.011499999947843,-0.011499999976354,-0.44681818312181,-0.44681818151096
2.58,-0.028999999999998,0.44872727227041,0.043662337597059,0.0094632034116488,0.44872727164463,-0.011599999947835,-0.011599999976354,-0.4487272740309,-0.44872727242009
2.585,-0.029249999999998,0.45063636317948,0.043753246687968,0.0095541125025503,0.45063636255356,-0.011699999947827,-0.011699999976353,-0.45063636493991,-0.45063636332911
2.59,-0.029499999999998,0.45254545408858,0.043844155778877,0.0096450215934526,0.45254545346251,-0.01179999994782,-0.011799999976354,-0.45254545584905,-0.45254545423825
2.595,-0.029749999999998,0.45445454499768,0.043935064869787,0.0097359306843556,0.45445454437147,-0.011899999947814,-0.011899999976354,-0.45445454675826,-0.4544545451474
2.6,-0.029999999999998,0.45636363590676,0.044025973960695,0.0098268397752572,0.4563636352804,-0.011999999947805,-0.011999999976353,-0.45636363766719,-0.45636363605639
2.605,-0.030249999999998,0.45827272681586,0.044116883051604,0.0099177488661601,0.45827272618936,-0.012099999947799,-0.012099999976354,-0.45827272857635,-0.45827272696549
2.61,-0.030499999999998,0.46018181772494,0.044207792142513,0.010008657957062,0.46018181709831,-0.012199999947792,-0.012199999976353,-0.46018181948544,-0.46018181787461
2.615,-0.030749999999998,0.46209090863403,0.044298701233422,0.010099567047965,0.46209090800727,-0.012299999947785,-0.012299999976353,-0.46209091039445,-0.46209090878365
2.62,-0.030999999999998,0.46399999954312,0.044389610324332,0.010190476138868,0.46399999891623,-0.012399999947778,-0.012399999976353,-0.46400000130358,-0.46399999969274
2.625,-0.031249999999998,0.4659090904522,0.04448051941524,0.010281385229771,0.46590908982519,-0.012499999947772,-0.012499999976353,-0.46590909221268,-0.46590909060183
2.63,-0.031499999999998,0.46781818136129,0.044571428506149,0.010372294320674,0.46781818073415,-0.012599999947765,-0.012599999976353,-0.46781818312184,-0.46781818151094
2.635,-0.031749999999998,0.46972727227038,0.044662337597058,0.010463203411576,0.4697272716431,-0.012699999947758,-0.012699999976353,-0.46972727403091,-0.46972727242003
2.64,-0.031999999999998,0.47163636317948,0.044753246687967,0.01055411250248,0.47163636255208,-0.012799999947753,-0.012799999976353,-0.47163636494,-0.47163636332912
2.645,-0.032249999999998,0.47354545408857,0.044844155778876,0.010645021593383,0.47354545346105,-0.012899999947747,-0.012899999976353,-0.47354545584911,-0.4735454542382
2.65,-0.032499999999998,0.47545454499766,0.044935064869785,0.010735930684286,0.47545454437002,-0.01299999994774,-0.012999999976353,-0.47545454675825,-0.47545454514736
2.655,-0.032749999999998,0.47736363590674,0.045025973960694,0.01082683977519,0.47736363527898,-0.013099999947734,-0.013099999976352,-0.47736363766722,-0.47736363605641
2.66,-0.032999999999998,0.47927272681584,0.045116883051604,0.010917748866094,0.47927272618797,-0.013199999947729,-0.013199999976353,-0.47927272857635,-0.47927272696555
2.665,-0.033249999999998,0.48118181772492,0.045207792142512,0.011008657956997,0.48118181709693,-0.013299999947722,-0.013299999976352,-0.48118181948541,-0.48118181787459
2.67,-0.033499999999998,0.48309090863401,0.045298701233422,0.011099567047901,0.48309090800592,-0.013399999947717,-0.013399999976352,-0.48309091039447,-0.48309090878362
2.675,-0.033749999999998,0.4849999995431,0.04538961032433,0.011190476138804,0.48499999891489,-0.013499999947711,-0.013499999976352,-0.48500000130356,-0.48499999969276
2.68,-0.033999999999998,0.48690909045219,0.045480519415239,0.011281385229708,0.48690908982388,-0.013599999947706,-0.013599999976352,-0.48690909221268,-0.48690909060182
2.685,-0.034249999999998,0.48881818136128,0.045571428506149,0.011372294320613,0.48881818073287,-0.013699999947701,-0.013699999976352,-0.48881818312183,-0.48881818151097
2.69,-0.034499999999998,0.49072727227037,0.045662337597057,0.011463203411516,0.49072727164184,-0.013799999947695,-0.013799999976352,-0.49072727403091,-0.49072727242007
2.695,-0.034749999999998,0.49263636317947,0.045753246687967,0.011554112502421,0.49263636255084,-0.01389999994769,-0.013899999976353,-0.49263636494,-0.49263636332918
2.7,-0.034999999999998,0.49454545408855,0.045844155778875,0.011645021593325,0.49454545345982,-0.013999999947684,-0.013999999976352,-0.49454545584905,-0.49454545423825
2.705,-0.035249999999998,0.49645454499763,0.045935064869784,0.011735930684229,0.4964545443688,-0.014099999947679,-0.014099999976352,-0.49645454675821,-0.49645454514734
2.71,-0.035499999999998,0.49836363590672,0.046025973960693,0.011826839775133,0.4983636352778,-0.014199999947674,-0.014199999976351,-0.4983636376672,-0.49836363605637
2.715,-0.035749999999998,0.50027272681581,0.046116883051602,0.011917748866037,0.50027272618679,-0.014299999947669,-0.014299999976351,-0.5002727285762,-0.50027272696542
2.72,-0.035999999999998,0.50218181772491,0.046207792142512,0.012008657956942,0.50218181709579,-0.014399999947664,-0.014399999976352,-0.50218181948533,-0.50218181787458
2.725,-0.036249999999998,0.50409090863401,0.046298701233421,0.012099567047847,0.50409090800479,-0.01449999994766,-0.014499999976352,-0.5040909103945,-0.50409090878373
2.73,-0.036499999999998,0.50599999954309,0.04638961032433,0.012190476138752,0.50599999891378,-0.014599999947655,-0.014599999976352,-0.50600000130351,-0.50599999969272
2.735,-0.036749999999998,0.50790909045217,0.046480519415239,0.012281385229656,0.50790908982278,-0.01469999994765,-0.014699999976351,-0.50790909221264,-0.50790909060187
2.74,-0.036999999999998,0.50981818136127,0.046571428506148,0.012372294320561,0.50981818073178,-0.014799999947646,-0.014799999976351,-0.50981818312178,-0.50981818151101
2.745,-0.037249999999998,0.51172727227035,0.046662337597057,0.012463203411466,0.51172727164078,-0.014899999947641,-0.014899999976351,-0.51172727403073,-0.51172727242001
2.75,-0.037499999999998,0.51363636317944,0.046753246687966,0.012554112502371,0.51363636254978,-0.014999999947636,-0.014999999976351,-0.51363636493994,-0.51363636332914
2.755,-0.037749999999998,0.51554545408852,0.046844155778874,0.012645021593275,0.51554545345877,-0.015099999947631,-0.01509999997635,-0.51554545584886,-0.51554545423814
2.76,-0.037999999999998,0.51745454499763,0.046935064869784,0.012735930684181,0.51745454436781,-0.015199999947629,-0.015199999976352,-0.51745454675806,-0.51745454514734
2.765,-0.038249999999998,0.51936363590671,0.047025973960693,0.012826839775085,0.5193636352768,-0.015299999947623,-0.015299999976351,-0.51936363766709,-0.5193636360564
2.77,-0.038499999999998,0.52127272681581,0.047116883051602,0.012917748865991,0.52127272618582,-0.01539999994762,-0.015399999976351,-0.52127272857632,-0.52127272696557
2.775,-0.038749999999998,0.52318181772488,0.047207792142511,0.013008657956896,0.52318181709481,-0.015499999947615,-0.01549999997635,-0.52318181948522,-0.52318181787452
2.78,-0.038999999999998,0.52509090863397,0.04729870123342,0.013099567047801,0.52509090800382,-0.015599999947611,-0.01559999997635,-0.52509091039439,-0.5250909087837
2.785,-0.039249999999998,0.52699999954306,0.047389610324328,0.013190476138706,0.52699999891283,-0.015699999947607,-0.01569999997635,-0.52700000130355,-0.52699999969281
2.79,-0.039499999999998,0.52890909045216,0.047480519415238,0.013281385229612,0.52890908982186,-0.015799999947603,-0.015799999976351,-0.52890909221251,-0.52890909060184
2.795,-0.039749999999998,0.53081818136123,0.047571428506146,0.013372294320517,0.53081818073085,-0.015899999947599,-0.01589999997635,-0.5308181831216,-0.53081818151083
2.8,-0.039999999999998,0.53272727227035,0.047662337597057,0.013463203411424,0.5327272716399,-0.015999999947596,-0.015999999976351,-0.53272727403073,-0.5327272724201
2.805,-0.040249999999998,0.53463636317943,0.047753246687965,0.013554112502329,0.53463636254891,-0.016099999947592,-0.016099999976351,-0.53463636493978,-0.53463636332912
2.81,-0.040499999999998,0.53654545408851,0.047844155778874,0.013645021593234,0.53654545345791,-0.016199999947587,-0.01619999997635,-0.53654545584877,-0.53654545423813
2.815,-0.040749999999998,0.53845454499761,0.047935064869783,0.01373593068414,0.53845454436694,-0.016299999947584,-0.01629999997635,-0.53845454675789,-0.53845454514727
2.82,-0.040999999999998,0.5403636359067,0.048025973960692,0.013826839775046,0.54036363527596,-0.016399999947581,-0.01639999997635,-0.54036363766701,-0.54036363605641
2.825,-0.041249999999998,0.54227272681578,0.048116883051601,0.013917748865951,0.54227272618497,-0.016499999947577,-0.016499999976349,-0.54227272857611,-0.54227272696541
2.83,-0.041499999999998,0.54418181772488,0.04820779214251,0.014008657956857,0.544181817094,-0.016599999947574,-0.01659999997635,-0.54418181948516,-0.54418181787459
2.835,-0.041749999999998,0.54609090863394,0.048298701233418,0.014099567047762,0.546090908003,-0.016699999947569,-0.016699999976348,-0.54609091039426,-0.5460909087836
2.84,-0.041999999999998,0.54799999954305,0.048389610324328,0.014190476138669,0.54799999891205,-0.016799999947567,-0.01679999997635,-0.54800000130324,-0.54799999969272
2.845,-0.042249999999998,0.54990909045215,0.048480519415237,0.014281385229575,0.54990908982108,-0.016899999947564,-0.01689999997635,-0.54990909221238,-0.54990909060185
2.85,-0.042499999999998,0.55181818136122,0.048571428506146,0.01437229432048,0.55181818073009,-0.01699999994756,-0.016999999976349,-0.55181818312147,-0.55181818151086
2.855,-0.042749999999998,0.55372727227032,0.048662337597055,0.014463203411386,0.55372727163912,-0.017099999947557,-0.01709999997635,-0.5537272740307,-0.55372727242011
2.86,-0.042999999999998,0.55563636317939,0.048753246687963,0.014554112502292,0.55563636254813,-0.017199999947553,-0.017199999976349,-0.5556363649396,-0.55563636332905
2.865,-0.043249999999998,0.55754545408851,0.048844155778874,0.014645021593199,0.55754545345718,-0.017299999947551,-0.01729999997635,-0.55754545584881,-0.55754545423827
2.87,-0.043499999999998,0.55945454499758,0.048935064869782,0.014735930684105,0.5594545443662,-0.017399999947547,-0.017399999976349,-0.55945454675784,-0.55945454514726
2.875,-0.043749999999998,0.56136363590667,0.049025973960691,0.014826839775011,0.56136363527523,-0.017499999947544,-0.017499999976349,-0.56136363766683,-0.5613636360563
2.88,-0.043999999999998,0.56327272681577,0.0491168830516,0.014917748865918,0.56327272618427,-0.017599999947541,-0.017599999976349,-0.56327272857602,-0.5632727269655
2.885,-0.044249999999998,0.56518181772485,0.049207792142509,0.015008657956824,0.5651818170933,-0.017699999947538,-0.017699999976349,-0.56518181948498,-0.56518181787454
2.89,-0.044499999999998,0.56709090863393,0.049298701233417,0.015099567047729,0.56709090800232,-0.017799999947534,-0.017799999976348,-0.56709091039412,-0.56709090878354
2.895,-0.044749999999998,0.56899999954303,0.049389610324327,0.015190476138637,0.56899999891137,-0.017899999947533,-0.017899999976348,-0.56900000130326,-0.56899999969272
2.9,-0.044999999999998,0.57090909045213,0.049480519415237,0.015281385229544,0.57090908982042,-0.017999999947531,-0.017999999976349,-0.57090909221238,-0.57090909060182
2.905,-0.045249999999998,0.57281818136122,0.049571428506146,0.01537229432045,0.57281818072946,-0.018099999947528,-0.018099999976349,-0.5728181831214,-0.57281818151092
2.91,-0.045499999999998,0.57472727227031,0.049662337597055,0.015463203411357,0.57472727163849,-0.018199999947525,-0.018199999976349,-0.57472727403038,-0.57472727241997
2.915,-0.045749999999998,0.57663636317938,0.049753246687963,0.015554112502263,0.57663636254752,-0.018299999947522,-0.018299999976348,-0.5766363649397,-0.57663636332912
2.92,-0.045999999999998,0.57854545408847,0.049844155778872,0.015645021593169,0.57854545345655,-0.018399999947518,-0.018399999976348,-0.57854545584846,-0.57854545423809
2.925,-0.046249999999998,0.58045454499756,0.049935064869781,0.015735930684076,0.58045454436559,-0.018499999947516,-0.018499999976348,-0.58045454675772,-0.58045454514728
2.93,-0.046499999999998,0.58236363590666,0.050025973960691,0.015826839774983,0.58236363527464,-0.018599999947514,-0.018599999976349,-0.58236363766679,-0.58236363605647
2.935,-0.046749999999998,0.58427272681574,0.050116883051599,0.015917748865889,0.58427272618367,-0.018699999947511,-0.018699999976348,-0.58427272857568,-0.58427272696533
2.94,-0.046999999999998,0.58618181772484,0.050207792142508,0.016008657956796,0.58618181709272,-0.018799999947509,-0.018799999976348,-0.58618181948487,-0.58618181787448
2.945,-0.047249999999998,0.58809090863392,0.050298701233417,0.016099567047703,0.58809090800177,-0.018899999947507,-0.018899999976348,-0.5880909103941,-0.58809090878364
2.95,-0.047499999999998,0.58999999954302,0.050389610324327,0.016190476138611,0.58999999891082,-0.018999999947504,-0.018999999976348,-0.59000000130309,-0.58999999969269
2.955,-0.047749999999998,0.5919090904521,0.050480519415235,0.016281385229517,0.59190908981985,-0.019099999947501,-0.019099999976347,-0.59190909221207,-0.59190909060169
2.96,-0.047999999999998,0.5938181813612,0.050571428506145,0.016372294320424,0.59381818072891,-0.0191999999475,-0.019199999976348,-0.5938181831212,-0.59381818151091
2.965,-0.048249999999998,0.59572727227029,0.050662337597054,0.016463203411331,0.59572727163795,-0.019299999947497,-0.019299999976348,-0.59572727403042,-0.59572727242007
2.97,-0.048499999999998,0.59763636317938,0.050753246687963,0.016554112502238,0.597636362547,-0.019399999947495,-0.019399999976348,-0.59763636493942,-0.59763636332911
2.975,-0.048749999999998,0.59954545408845,0.050844155778871,0.016645021593144,0.59954545345603,-0.019499999947492,-0.019499999976347,-0.59954545584847,-0.5995454542382
2.98,-0.048999999999998,0.60145454499757,0.050935064869781,0.016735930684053,0.60145454436511,-0.019599999947492,-0.019599999976349,-0.60145454675785,-0.60145454514738
2.985,-0.049249999999998,0.60336363590662,0.051025973960689,0.016826839774958,0.60336363527412,-0.019699999947487,-0.019699999976346,-0.60336363766668,-0.60336363605633
2.99,-0.049499999999998,0.60527272681572,0.051116883051598,0.016917748865866,0.60527272618318,-0.019799999947486,-0.019799999976347,-0.60527272857589,-0.60527272696555
2.995,-0.049749999999998,0.60718181772482,0.051207792142507,0.017008657956773,0.60718181709223,-0.019899999947484,-0.019899999976347,-0.60718181948487,-0.60718181787463
3,-0.049999999999998,0.60909090863392,0.051298701233417,0.017099567047681,0.60909090800129,-0.019999999947482,-0.019999999976347,-0.60909091039386,-0.60909090878358
3.005,-0.049875000000001,0.5985909116145,0.051298701233417,0.017099567047681,0.59859090999706,-0.019949999962092,-0.01994999998597,-0.59859091507061,-0.5985909093646
3.01,-0.049750000000001,0.58809090985548,0.051298701233417,0.017099567047681,0.58809091013887,-0.019899999954804,-0.019899999980612,-0.58809091103158,-0.58809090919035
3.015,-0.049625000000001,0.57759090985548,0.051298701233417,0.017099567047681,0.57759091013887,-0.019849999954804,-0.019849999980612,-0.57759091103157,-0.57759090919035
3.02,-0.049500000000001,0.56709090985548,0.051298701233417,0.017099567047681,0.56709091013887,-0.019799999954804,-0.019799999980612,-0.56709091103157,-0.56709090919035
3.025,-0.049375000000001,0.55659090985548,0.051298701233417,0.017099567047681,0.55659091013887,-0.019749999954804,-0.019749999980612,-0.55659091103157,-0.55659090919035
3.03,-0.049250000000001,0.54609090985548,0.051298701233417,0.017099567047681,0.54609091013887,-0.019699999954804,-0.019699999980612,-0.54609091103158,-0.54609090919035
3.035,-0.049125000000001,0.53559090985548,0.051298701233417,0.017099567047681,0.53559091013887,-0.019649999954804,-0.019649999980612,-0.53559091103158,-0.53559090919035
3.04,-0.049000000000001,0.52509090985548,0.051298701233417,0.017099567047681,0.52509091013887,-0.019599999954804,-0.019599999980612,-0.52509091103158,-0.52509090919035
3.045,-0.048875000000001,0.51459090985548,0.051298701233417,0.017099567047681,0.51459091013887,-0.019549999954804,-0.019549999980612,-0.51459091103158,-0.51459090919035
3.05,-0.048750000000001,0.50409090985548,0.051298701233417,0.017099567047681,0.50409091013887,-0.019499999954804,-0.019499999980612,-0.50409091103157,-0.50409090919035
3.055,-0.048625000000001,0.49359090985548,0.051298701233417,0.017099567047681,0.49359091013887,-0.019449999954804,-0.019449999980612,-0.49359091103158,-0.49359090919035
3.06,-0.048500000000001,0.48309090985548,0.051298701233417,0.017099567047681,0.48309091013887,-0.019399999954804,-0.019399999980612,-0.48309091103158,-0.48309090919035
3.065,-0.048375000000001,0.47259090985548,0.051298701233417,0.017099567047681,0.47259091013887,-0.019349999954804,-0.019349999980612,-0.47259091103158,-0.47259090919035
3.07,-0.048250000000001,0.46209090985548,0.051298701233417,0.017099567047681,0.46209091013887,-0.019299999954804,-0.019299999980612,-0.46209091103158,-0.46209090919035
3.075,-0.048125000000001,0.45159090985548,0.051298701233417,0.017099567047681,0.45159091013887,-0.019249999954804,-0.019249999980612,-0.45159091103158,-0.45159090919035
3.08,-0.048000000000001,0.44109090985548,0.051298701233417,0.017099567047681,0.44109091013887,-0.019199999954804,-0.019199999980612,-0.44109091103158,-0.44109090919035
3.085,-0.047875000000001,0.43059090985548,0.051298701233417,0.017099567047681,0.43059091013887,-0.019149999954804,-0.019149999980612,-0.43059091103158,-0.43059090919035
3.09,-0.047750000000001,0.42009090985548,0.051298701233417,0.017099567047681,0.42009091013887,-0.019099999954804,-0.019099999980612,-0.42009091103158,-0.42009090919035
3.095,-0.047625000000001,0.40959090985548,0.051298701233417,0.017099567047681,0.40959091013887,-0.019049999954804,-0.019049999980612,-0.40959091103158,-0.40959090919035
3.1,-0.047500000000001,0.39909090985548,0.051298701233417,0.017099567047681,0.39909091013887,-0.018999999954804,-0.018999999980612,-0.39909091103158,-0.39909090919035
3.105,-0.047375000000001,0.38859090985548,0.051298701233417,0.017099567047681,0.38859091013887,-0.018949999954804,-0.018949999980612,-0.38859091103158,-0.38859090919035
3.11,-0.047250000000001,0.37809090985548,0.051298701233417,0.017099567047681,0.37809091013887,-0.018899999954804,-0.018899999980612,-0.37809091103158,-0.37809090919035
3.115,-0.047125000000001,0.36759090985548,0.051298701233417,0.017099567047681,0.36759091013887,-0.018849999954804,-0.018849999980612,-0.36759091103158,-0.36759090919035
3.12,-0.047000000000001,0.35709090985548,0.051298701233417,0.017099567047681,0.35709091013887,-0.018799999954804,-0.018799999980612,-0.35709091103158,-0.35709090919035
3.125,-0.046875000000001,0.34659090985548,0.051298701233417,0.017099567047681,0.34659091013887,-0.018749999954804,-0.018749999980612,-0.34659091103158,-0.34659090919035
3.13,-0.046750000000001,0.33609090985548,0.051298701233417,0.017099567047681,0.33609091013887,-0.018699999954804,-0.018699999980612,-0.33609091103158,-0.33609090919035
3.135,-0.046625000000001,0.32559090985548,0.051298701233417,0.017099567047681,0.32559091013887,-0.018649999954804,-0.018649999980612,-0.32559091103158,-0.32559090919035
3.14,-0.046500000000001,0.31509090985548,0.051298701233417,0.017099567047681,0.31509091013887,-0.018599999954804,-0.018599999980612,-0.31509091103158,-0.31509090919035
3.145,-0.046375000000001,0.30459090985548,0.051298701233417,0.017099567047681,0.30459091013887,-0.018549999954804,-0.018549999980612,-0.30459091103158,-0.30459090919035
3.15,-0.046250000000001,0.29409090985548,0.051298701233417,0.017099567047681,0.29409091013887,-0.018499999954804,-0.018499999980612,-0.29409091103158,-0.29409090919035
3.155,-0.046125000000001,0.28359090985548,0.051298701233417,0.017099567047681,0.28359091013887,-0.018449999954804,-0.018449999980612,-0.28359091103158,-0.28359090919035
3.16,-0.046000000000001,0.27309090985548,0.051298701233417,0.017099567047681,0.27309091013888,-0.018399999954804,-0.018399999980612,-0.27309091103158,-0.27309090919035
3.165,-0.045875000000001,0.26259090985549,0.051298701233417,0.017099567047681,0.26259091013888,-0.018349999954804,-0.018349999980612,-0.26259091103158,-0.26259090919035
3.17,-0.045750000000001,0.25209090985548,0.051298701233417,0.017099567047681,0.25209091013888,-0.018299999954804,-0.018299999980612,-0.25209091103158,-0.25209090919035
3.175,-0.045625000000001,0.24159090985548,0.051298701233417,0.017099567047681,0.24159091013887,-0.018249999954804,-0.018249999980612,-0.24159091103158,-0.24159090919035
3.18,-0.045500000000001,0.23109090985549,0.051298701233417,0.017099567047681,0.23109091013888,-0.018199999954804,-0.018199999980612,-0.23109091103158,-0.23109090919035
3.185,-0.045375000000001,0.22059090985549,0.051298701233417,0.017099567047681,0.22059091013888,-0.018149999954804,-0.018149999980612,-0.22059091103158,-0.22059090919035
3.19,-0.045250000000001,0.21009090985549,0.051298701233417,0.017099567047681,0.21009091013888,-0.018099999954804,-0.018099999980612,-0.21009091103158,-0.21009090919036
3.195,-0.045125000000001,0.19959090985549,0.051298701233417,0.017099567047681,0.19959091013888,-0.018049999954804,-0.018049999980612,-0.19959091103158,-0.19959090919036
3.2,-0.045000000000001,0.18909090985549,0.051298701233417,0.017099567047681,0.18909091013888,-0.017999999954804,-0.017999999980612,-0.18909091103158,-0.18909090919035
3.205,-0.044875000000001,0.17859090985549,0.051298701233417,0.017099567047681,0.17859091013888,-0.017949999954804,-0.017949999980612,-0.17859091103158,-0.17859090919035
3.21,-0.044750000000001,0.16809090985549,0.051298701233417,0.017099567047681,0.16809091013888,-0.017899999954804,-0.017899999980612,-0.16809091103158,-0.16809090919036
3.215,-0.044625000000001,0.15759090985549,0.051298701233417,0.017099567047681,0.15759091013888,-0.017849999954804,-0.017849999980612,-0.15759091103158,-0.15759090919036
3.22,-0.044500000000001,0.14709090985549,0.051298701233417,0.017099567047681,0.14709091013888,-0.017799999954804,-0.017799999980612,-0.14709091103158,-0.14709090919036
3.225,-0.044375000000001,0.13659090985549,0.051298701233417,0.017099567047681,0.13659091013888,-0.017749999954804,-0.017749999980612,-0.13659091103158,-0.13659090919036
3.23,-0.044250000000001,0.12609090985549,0.051298701233417,0.017099567047681,0.12609091013888,-0.017699999954804,-0.017699999980612,-0.12609091103158,-0.12609090919036
3.235,-0.044125000000001,0.11559090968438,0.051298701233417,0.017099567047681,0.11559091018256,-0.017649999955461,-0.017649999979724,-0.11559091131101,-0.11559090898067
3.24,-0.044000000000001,0.1087272726959,0.051316017230465,0.017082251055853,0.10872727217292,-0.017599999972454,-0.017599999998458,-0.10872727295591,-0.10872727274907
3.245,-0.043875000000001,0.10777272726928,0.05136147177459,0.017036796513805,0.1077727267899,-0.017549999975993,-0.017549999999919,-0.10777272746421,-0.10777272732162
3.25,-0.043750000000001,0.10681818181692,0.05140692631994,0.016991341968719,0.10681818134311,-0.017499999976374,-0.01750000000003,-0.10681818200396,-0.10681818186708
3.255,-0.043625000000001,0.10586363636447,0.051452380865295,0.016945887423628,0.10586363589618,-0.017449999976748,-0.017450000000135,-0.10586363654401,-0.10586363641258
3.26,-0.043500000000001,0.10490909091194,0.051497835410654,0.016900432878529,0.10490909044912,-0.017399999977116,-0.017400000000237,-0.10490909108416,-0.104909090958
3.265,-0.043375000000001,0.10395454545932,0.051543289956017,0.016854978333425,0.10395454500192,-0.017349999977477,-0.017350000000334,-0.1039545456245,-0.10395454550344
3.27,-0.043250000000001,0.10300000000663,0.051588744501383,0.016809523788314,0.10299999955459,-0.017299999977832,-0.017300000000428,-0.10300000016506,-0.10300000004889
3.275,-0.043125000000001,0.10204545455386,0.051634199046753,0.016764069243197,0.10204545410715,-0.017249999978181,-0.017250000000517,-0.10204545470581,-0.10204545459434
3.28,-0.043000000000001,0.10109090910103,0.051679653592126,0.016718614698075,0.10109090865958,-0.017199999978525,-0.017200000000604,-0.10109090924671,-0.1010909091398
3.285,-0.042875000000001,0.10013636364812,0.051725108137503,0.016673160152947,0.1001363632119,-0.017149999978863,-0.017150000000686,-0.10013636378779,-0.10013636368526
3.29,-0.042750000000001,0.099181818195144,0.051770562682882,0.016627705607814,0.099181817764103,-0.017099999979196,-0.017100000000766,-0.099181818329003,-0.099181818230718
3.295,-0.042625000000001,0.098227272742105,0.051816017228265,0.016582251062676,0.098227272316193,-0.017049999979523,-0.017050000000842,-0.098227272870393,-0.0982272727762
3.3,-0.042500000000001,0.097272727289006,0.051861471773651,0.016536796517532,0.097272726868175,-0.016999999979845,-0.017000000000915,-0.097272727411773,-0.097272727321605
3.305,-0.042375000000001,0.096318181835849,0.051906926319039,0.016491341972384,0.096318181420058,-0.016949999980162,-0.016950000000985,-0.096318181953388,-0.096318181867057
3.31,-0.042250000000001,0.095363636382639,0.05195238086443,0.01644588742723,0.095363635971838,-0.016899999980474,-0.016900000001052,-0.095363636495168,-0.095363636412548
3.315,-0.042125000000001,0.094409090929373,0.051997835409824,0.016400432882072,0.09440909052352,-0.016849999980782,-0.016850000001117,-0.094409091037044,-0.094409090958001
3.32,-0.042000000000001,0.093454545476054,0.05204328995522,0.01635497833691,0.093454545075104,-0.016799999981084,-0.016800000001179,-0.093454545579023,-0.09345454550345
3.325,-0.041875000000001,0.092500000022687,0.052088744500618,0.016309523791743,0.092499999626597,-0.016749999981383,-0.016750000001238,-0.092500000121122,-0.092500000048901
3.33,-0.041750000000001,0.091545454569273,0.052134199046019,0.016264069246571,0.091545454177999,-0.016699999981677,-0.016700000001295,-0.091545454663277,-0.091545454594344
3.335,-0.041625000000001,0.090590909115811,0.052179653591422,0.016218614701396,0.09059090872931,-0.016649999981966,-0.01665000000135,-0.090590909205588,-0.090590909139802
3.34,-0.041500000000001,0.089636363662307,0.052225108136827,0.016173160156216,0.089636363280537,-0.016599999982252,-0.016600000001403,-0.089636363747954,-0.089636363685276
3.345,-0.041375000000001,0.08868181820876,0.052270562682234,0.016127705611032,0.08868181783168,-0.016549999982533,-0.016550000001453,-0.088681818290445,-0.088681818230712
3.35,-0.041250000000001,0.087727272755176,0.052316017227643,0.016082251065845,0.087727272382742,-0.016499999982811,-0.016500000001502,-0.087727272833,-0.087727272776182
3.355,-0.041125000000001,0.086772727301552,0.052361471773053,0.016036796520654,0.086772726933727,-0.016449999983085,-0.016450000001548,-0.086772727375652,-0.086772727321626
3.36,-0.041000000000001,0.085818181847889,0.052406926318466,0.015991341975459,0.085818181484628,-0.016399999983354,-0.016400000001593,-0.085818181918398,-0.085818181867085
3.365,-0.040875000000001,0.08486363639419,0.05245238086388,0.01594588743026,0.084863636035455,-0.01634999998362,-0.016350000001635,-0.084863636461169,-0.084863636412534
3.37,-0.040750000000001,0.083909090940459,0.052497835409296,0.015900432885058,0.083909090586212,-0.016299999983883,-0.016300000001676,-0.083909091004033,-0.083909090957984
3.375,-0.040625000000001,0.082954545486695,0.052543289954713,0.015854978339852,0.082954545136896,-0.016249999984142,-0.016250000001716,-0.082954545547012,-0.082954545503447
3.38,-0.040500000000001,0.082000000032897,0.052588744500132,0.015809523794643,0.081999999687508,-0.016199999984398,-0.016200000001754,-0.082000000090037,-0.082000000048919
3.385,-0.040375000000001,0.08104545457907,0.052634199045553,0.015764069249431,0.081045454238049,-0.01614999998465,-0.01615000000179,-0.081045454633078,-0.081045454594358
3.3899999999999,-0.040250000000001,0.080090909125215,0.052679653590974,0.015718614704215,0.080090908788525,-0.016099999984899,-0.016100000001825,-0.080090909176212,-0.08009090913981
3.3949999999999,-0.040125000000001,0.079136363671333,0.052725108136397,0.015673160158997,0.079136363338939,-0.016049999985145,-0.016050000001858,-0.079136363719412,-0.079136363685267
3.3999999999999,-0.040000000000001,0.078181818217423,0.052770562681821,0.015627705613776,0.078181817889286,-0.015999999985388,-0.01600000000189,-0.078181818262631,-0.078181818230694
3.4049999999999,-0.039875000000001,0.077227272763484,0.052816017227247,0.015582251068551,0.077227272439568,-0.015949999985628,-0.015950000001921,-0.077227272805964,-0.077227272776163
3.4099999999999,-0.039750000000001,0.076272727309528,0.052861471772674,0.015536796523324,0.076272726989796,-0.015899999985865,-0.015900000001951,-0.076272727349327,-0.076272727321635
3.4149999999999,-0.039625000000001,0.075318181855543,0.052906926318101,0.015491341978093,0.075318181539958,-0.015849999986098,-0.015850000001979,-0.075318181892719,-0.075318181867075
3.4199999999999,-0.039500000000001,0.074363636401535,0.05295238086353,0.01544588743286,0.074363636090064,-0.015799999986329,-0.015800000002006,-0.074363636436168,-0.074363636412537
3.4249999999999,-0.039375000000001,0.07340909094751,0.05299783540896,0.015400432887624,0.073409090640114,-0.015749999986558,-0.015750000002032,-0.073409090979666,-0.073409090958
3.4299999999999,-0.039250000000001,0.072454545493458,0.053043289954391,0.015354978342386,0.072454545190106,-0.015699999986783,-0.015700000002057,-0.072454545523225,-0.072454545503456
3.4349999999999,-0.039125000000001,0.07150000003939,0.053088744499823,0.015309523797145,0.071499999740045,-0.015649999987006,-0.015650000002081,-0.07150000006679,-0.071500000048905
3.4399999999999,-0.039000000000001,0.070545454585301,0.053134199045256,0.015264069251901,0.070545454289928,-0.015599999987226,-0.015600000002104,-0.070545454610385,-0.070545454594347
3.4449999999999,-0.038875000000001,0.069590909131196,0.053179653590689,0.015218614706655,0.069590908839764,-0.015549999987443,-0.015550000002127,-0.069590909154065,-0.069590909139819
3.4499999999999,-0.038750000000001,0.068636363677073,0.053225108136124,0.015173160161407,0.068636363389547,-0.015499999987658,-0.015500000002148,-0.068636363697719,-0.068636363685264
3.4549999999999,-0.038625000000001,0.067681818222929,0.053270562681559,0.015127705616156,0.067681817939273,-0.015449999987871,-0.015450000002168,-0.067681818241486,-0.06768181823073
3.4599999999999,-0.038500000000001,0.066727272768772,0.053316017226995,0.015082251070903,0.066727272488955,-0.015399999988081,-0.015400000002188,-0.066727272785226,-0.066727272776152
3.4649999999999,-0.038375000000001,0.065772727314599,0.053361471772432,0.015036796525647,0.065772727038588,-0.015349999988289,-0.015350000002207,-0.065772727329005,-0.065772727321649
3.4699999999999,-0.038250000000001,0.064818181860412,0.05340692631787,0.014991341980389,0.064818181588177,-0.015299999988494,-0.015300000002225,-0.064818181872824,-0.064818181867084
3.4749999999999,-0.038125000000001,0.063863636406207,0.053452380863308,0.014945887435129,0.063863636137712,-0.015249999988697,-0.015250000002242,-0.063863636416694,-0.06386363641254
3.4799999999999,-0.038000000000001,0.062909090951992,0.053497835408747,0.014900432889867,0.062909090687209,-0.015199999988898,-0.015200000002259,-0.06290909096057,-0.062909090957999
3.4849999999999,-0.037875000000001,0.06195454549776,0.053543289954186,0.014854978344603,0.061954545236657,-0.015149999989097,-0.015150000002274,-0.061954545504483,-0.061954545503432
3.4899999999999,-0.037750000000001,0.061000000043519,0.053588744499626,0.014809523799336,0.060999999786061,-0.015099999989293,-0.01510000000229,-0.061000000048399,-0.061000000048898
3.4949999999999,-0.037625000000001,0.060045454589263,0.053634199045067,0.014764069254068,0.060045454335422,-0.015049999989488,-0.015050000002304,-0.060045454592351,-0.060045454594348
3.4999999999999,-0.037500000000001,0.059090909134998,0.053679653590508,0.014718614708797,0.059090908884741,-0.01499999998968,-0.015000000002319,-0.059090909136333,-0.059090909139819
3.5049999999999,-0.037375000000001,0.05813636368072,0.05372510813595,0.014673160163525,0.05813636343402,-0.01494999998987,-0.014950000002332,-0.058136363680339,-0.058136363685262
3.5099999999999,-0.037250000000001,0.057181818226434,0.053770562681392,0.01462770561825,0.05718181798326,-0.014899999990059,-0.014900000002345,-0.057181818224386,-0.057181818230733
3.5149999999999,-0.037125000000001,0.056227272772134,0.053816017226835,0.014582251072974,0.056227272532456,-0.014849999990245,-0.014850000002358,-0.056227272768411,-0.056227272776164
3.5199999999999,-0.037000000000001,0.055272727317823,0.053861471772279,0.014536796527696,0.055272727081613,-0.014799999990429,-0.014800000002369,-0.05527272731248,-0.055272727321621
3.5249999999999,-0.036875000000001,0.054318181863504,0.053906926317722,0.014491341982416,0.054318181630731,-0.014749999990611,-0.014750000002381,-0.054318181856538,-0.054318181867077
3.5299999999999,-0.036750000000001,0.053363636409179,0.053952380863166,0.014445887437134,0.053363636179815,-0.014699999990792,-0.014700000002392,-0.05336363640068,-0.053363636412559
3.5349999999999,-0.036625000000001,0.052409090954843,0.053997835408611,0.01440043289185,0.052409090728858,-0.01464999999097,-0.014650000002403,-0.052409090944753,-0.052409090957973
3.5399999999999,-0.036500000000001,0.051454545500496,0.054043289954056,0.014354978346565,0.051454545277862,-0.014599999991147,-0.014600000002413,-0.051454545488901,-0.051454545503435
3.5449999999999,-0.036375000000001,0.050500000046145,0.054088744499501,0.014309523801278,0.050499999826836,-0.014549999991322,-0.014550000002422,-0.050500000033095,-0.050500000048911
3.5499999999999,-0.036250000000001,0.049545454591783,0.054134199044947,0.014264069255989,0.049545454375769,-0.014499999991496,-0.014500000002432,-0.049545454577264,-0.049545454594353
3.5549999999999,-0.036125000000001,0.048590909137415,0.054179653590393,0.014218614710699,0.04859090892467,-0.014449999991667,-0.014450000002441,-0.048590909121413,-0.048590909139785
3.5599999999999,-0.036000000000001,0.047636363683041,0.05422510813584,0.014173160165406,0.047636363473534,-0.014399999991837,-0.014400000002449,-0.047636363665653,-0.047636363685265
3.5649999999999,-0.035875000000001,0.046681818228657,0.054270562681286,0.014127705620113,0.046681818022366,-0.014349999992005,-0.014350000002457,-0.04668181820988,-0.046681818230715
3.5699999999999,-0.035750000000001,0.045727272774268,0.054316017226734,0.014082251074817,0.045727272571163,-0.014299999992171,-0.014300000002465,-0.045727272754105,-0.045727272776168
3.5749999999999,-0.035625000000001,0.044772727319874,0.054361471772181,0.01403679652952,0.044772727119929,-0.014249999992336,-0.014250000002473,-0.044772727298345,-0.044772727321606
3.5799999999999,-0.035500000000001,0.043818181865472,0.054406926317629,0.013991341984222,0.043818181668661,-0.014199999992499,-0.01420000000248,-0.043818181842652,-0.043818181867095
3.5849999999999,-0.035375000000001,0.042863636411066,0.054452380863077,0.013945887438922,0.042863636217365,-0.014149999992661,-0.014150000002487,-0.042863636386923,-0.042863636412542
3.5899999999999,-0.035250000000001,0.041909090956653,0.054497835408525,0.013900432893621,0.041909090766032,-0.014099999992821,-0.014100000002494,-0.04190909093121,-0.041909090957989
3.5949999999999,-0.035125000000001,0.040954545502234,0.054543289953973,0.013854978348318,0.040954545314669,-0.014049999992979,-0.0140500000025,-0.040954545475484,-0.040954545503437
3.5999999999999,-0.035000000000001,0.040000000047811,0.054588744499422,0.013809523803013,0.039999999863276,-0.013999999993136,-0.014000000002506,-0.040000000019801,-0.040000000048888
3.6049999999999,-0.034875000000001,0.039045454593385,0.054634199044871,0.013764069257707,0.039045454411854,-0.013949999993292,-0.013950000002512,-0.039045454564113,-0.039045454594359
3.6099999999999,-0.034750000000001,0.038090909138951,0.05467965359032,0.0137186147124,0.038090908960401,-0.013899999993446,-0.013900000002518,-0.03809090910843,-0.038090909139794
3.6149999999999,-0.034625000000001,0.037136363684515,0.054725108135769,0.013673160167091,0.037136363508921,-0.013849999993599,-0.013850000002524,-0.037136363652818,-0.037136363685278
3.6199999999999,-0.034500000000001,0.036181818230073,0.054770562681219,0.013627705621781,0.03618181805741,-0.01379999999375,-0.013800000002529,-0.036181818197156,-0.036181818230719
3.6249999999999,-0.034375000000001,0.035227272775627,0.054816017226669,0.01358225107647,0.035227272605869,-0.013749999993899,-0.013750000002534,-0.03522727274152,-0.035227272776176
3.6299999999999,-0.034250000000001,0.034272727321176,0.054861471772119,0.013536796531157,0.034272727154303,-0.013699999994048,-0.013700000002539,-0.034272727285938,-0.034272727321637
3.6349999999999,-0.034125000000001,0.033318181866723,0.054906926317569,0.013491341985843,0.033318181702707,-0.013649999994194,-0.013650000002543,-0.033318181830297,-0.033318181867092
3.6399999999999,-0.034000000000001,0.032363636412265,0.054952380863019,0.013445887440528,0.032363636251085,-0.01359999999434,-0.013600000002548,-0.032363636374688,-0.032363636412525
3.6449999999999,-0.033875000000001,0.031409090957805,0.05499783540847,0.013400432895211,0.031409090799435,-0.013549999994484,-0.013550000002552,-0.031409090919102,-0.031409090958007
3.6499999999999,-0.033750000000001,0.030454545503339,0.055043289953921,0.013354978349893,0.030454545347758,-0.013499999994627,-0.013500000002556,-0.030454545463502,-0.030454545503425
3.6549999999999,-0.033625000000001,0.029500000048871,0.055088744499372,0.013309523804574,0.029499999896056,-0.013449999994768,-0.01345000000256,-0.029500000007912,-0.029500000048878
3.6599999999999,-0.033500000000001,0.028545454594401,0.055134199044822,0.013264069259254,0.028545454444325,-0.013399999994909,-0.013400000002564,-0.02854545455234,-0.028545454594337
3.6649999999999,-0.033375000000001,0.027590909139926,0.055179653590274,0.013218614713932,0.027590908992572,-0.013349999995048,-0.013350000002567,-0.027590909096799,-0.027590909139796
3.6699999999999,-0.033250000000001,0.02663636368545,0.055225108135725,0.013173160168609,0.026636363540791,-0.013299999995185,-0.013300000002571,-0.026636363641247,-0.026636363685242
3.6749999999999,-0.033125000000001,0.025681818230972,0.055270562681176,0.013127705623285,0.025681818088988,-0.013249999995322,-0.013250000002574,-0.025681818185717,-0.025681818230701
3.6799999999999,-0.033000000000001,0.024727272776489,0.055316017226628,0.01308225107796,0.024727272637158,-0.013199999995457,-0.013200000002577,-0.024727272730191,-0.024727272776161
3.6849999999999,-0.032875000000001,0.023772727322004,0.055361471772079,0.013036796532633,0.023772727185303,-0.013149999995591,-0.01315000000258,-0.023772727274645,-0.023772727321617
3.6899999999999,-0.032750000000001,0.022818181867515,0.055406926317531,0.012991341987306,0.022818181733422,-0.013099999995723,-0.013100000002583,-0.022818181819128,-0.022818181867068
3.6949999999999,-0.032625000000001,0.021863636413027,0.055452380862983,0.012945887441977,0.021863636281522,-0.013049999995855,-0.013050000002586,-0.021863636363617,-0.021863636412523
3.6999999999999,-0.032500000000001,0.020909090958535,0.055497835408435,0.012900432896647,0.020909090829593,-0.012999999995985,-0.013000000002589,-0.020909090908097,-0.020909090957965
3.7049999999999,-0.032375000000001,0.019954545504041,0.055543289953887,0.012854978351316,0.019954545377645,-0.012949999996115,-0.012950000002591,-0.019954545452628,-0.01995454550344
3.7099999999999,-0.032250000000001,0.019000000049545,0.055588744499339,0.012809523805984,0.018999999925674,-0.012899999996243,-0.012900000002594,-0.018999999997144,-0.019000000048888
3.7149999999999,-0.032125000000001,0.018045454595049,0.055634199044792,0.012764069260651,0.01804545447368,-0.01284999999637,-0.012850000002596,-0.018045454541659,-0.018045454594367
3.7199999999999,-0.032000000000001,0.01709090914055,0.055679653590244,0.012718614715317,0.017090909021663,-0.012799999996496,-0.012800000002599,-0.017090909086176,-0.017090909139821
3.7249999999999,-0.031875000000001,0.016136363686045,0.055725108135697,0.012673160169982,0.01613636356962,-0.01274999999662,-0.012750000002601,-0.016136363630707,-0.01613636368524
3.7299999999999,-0.031750000000001,0.015181818231542,0.055770562681149,0.012627705624646,0.015181818117559,-0.012699999996744,-0.012700000002603,-0.015181818175261,-0.015181818230704
3.7349999999999,-0.031625000000001,0.014227272777037,0.055816017226602,0.012582251079308,0.014227272665474,-0.012649999996866,-0.012650000002605,-0.014227272719824,-0.014227272776175
3.7399999999999,-0.031500000000001,0.013272727322529,0.055861471772054,0.01253679653397,0.013272727213369,-0.012599999996988,-0.012600000002607,-0.013272727264355,-0.013272727321611
3.7449999999999,-0.031375000000001,0.01231818186802,0.055906926317507,0.01249134198863,0.012318181761239,-0.012549999997108,-0.012550000002609,-0.012318181808903,-0.012318181867065
3.7499999999999,-0.031250000000001,0.011363636413512,0.05595238086296,0.01244588744329,0.011363636309092,-0.012499999997228,-0.012500000002611,-0.011363636353496,-0.011363636412537
3.7549999999999,-0.031125000000001,0.010409090958999,0.055997835408413,0.012400432897949,0.010409090856924,-0.012449999997346,-0.012450000002612,-0.010409090898062,-0.010409090957976
3.7599999999999,-0.031000000000001,0.0094545455044865,0.056043289953866,0.012354978352606,0.0094545454047343,-0.012399999997463,-0.012400000002614,-0.0094545454426514,-0.0094545455034421
3.7649999999999,-0.030875000000001,0.0085000000499735,0.056088744499319,0.012309523807263,0.0084999999525246,-0.012349999997579,-0.012350000002616,-0.008499999987253,-0.0085000000488969
3.7699999999999,-0.030750000000001,0.0075454545954576,0.056134199044772,0.012264069261919,0.0075454545002948,-0.012299999997695,-0.012300000002617,-0.0075454545318279,-0.0075454545943419
3.7749999999999,-0.030625000000001,0.00659090914094,0.056179653590225,0.012218614716573,0.0065909090480424,-0.012249999997809,-0.012250000002618,-0.0065909090764108,-0.0065909091397849
3.7799999999999,-0.030500000000001,0.0056363636864232,0.056225108135679,0.012173160171227,0.0056363635957722,-0.012199999997922,-0.01220000000262,-0.0056363636210155,-0.005636363685256
3.7849999999999,-0.030375000000001,0.0046818182319035,0.056270562681132,0.01212770562588,0.0046818181434829,-0.012149999998034,-0.012150000002621,-0.0046818181655943,-0.0046818182306732
3.7899999999999,-0.030250000000001,0.003727272777383,0.056316017226585,0.012082251080532,0.0037272726911745,-0.012099999998145,-0.012100000002622,-0.0037272727102543,-0.0037272727761414
3.7949999999999,-0.030125000000001,0.0027727273228633,0.056361471772039,0.012036796535183,0.0027727272388472,-0.012049999998256,-0.012050000002624,-0.0027727272548775,-0.0027727273216123
3.7999999999999,-0.030000000000001,0.0018181818683407,0.056406926317492,0.011991341989833,0.0018181817864988,-0.011999999998365,-0.012000000002625,-0.0018181817995143,-0.0018181818670667
3.8049999999999,-0.029875000000001,0.00086363641381909,0.056452380862945,0.011945887444483,0.00086363633413361,-0.011949999998474,-0.011950000002626,-0.00086363634413549,-0.00086363641252536
3.8099999999999,-0.029750000000001,9.0909040706426e-05,0.056497835408399,0.011900432899131,9.0909118253433e-05,-0.011899999998581,-0.011900000002627,9.0909111215006e-05,9.0909042010442e-05
3.8149999999999,-0.029625000000001,0.0010454544952321,0.056543289953853,0.011854978353778,0.0010454545706565,-0.011849999998688,-0.011850000002628,0.0010454545665985,0.0010454544965931
3.8199999999999,-0.029500000000001,0.0019999999497573,0.056588744499306,0.011809523808425,0.0020000000230781,-0.011799999998793,-0.011800000002629,0.0020000000219056,0.0019999999511116
3.8249999999999,-0.029375000000001,0.0029545454042828,0.05663419904476,0.011764069263071,0.0029545454755176,-0.011749999998898,-0.01175000000263,0.0029545454772254,0.0029545454056473
3.8299999999999,-0.029250000000001,0.003909090858808,0.056679653590213,0.011718614717716,0.0039090909279722,-0.011699999999002,-0.011700000002631,0.0039090909325573,0.0039090908601823
3.8349999999999,-0.029125000000001,0.0048636363133386,0.056725108135667,0.01167316017236,0.0048636363804498,-0.011649999999105,-0.011650000002632,0.0048636363879267,0.0048636363147662
3.8399999999999,-0.029000000000001,0.0058181817678672,0.056770562681121,0.011627705627003,0.0058181818329429,-0.011599999999207,-0.011600000002633,0.005818181843218,0.0058181817693001
3.8449999999999,-0.028875000000001,0.0067727272223959,0.056816017226575,0.011582251081645,0.0067727272854548,-0.011549999999308,-0.011550000002634,0.0067727272985854,0.0067727272238587
3.8499999999999,-0.028750000000001,0.0077272726769276,0.056861471772029,0.011536796536287,0.0077272727379808,-0.011499999999409,-0.011500000002634,0.0077272727538676,0.007727272678395
3.8549999999999,-0.028625000000001,0.0086818181314563,0.056906926317482,0.011491341990927,0.0086818181905243,-0.011449999999508,-0.011450000002635,0.0086818182091861,0.0086818181329355
3.8599999999999,-0.028500000000002,0.0096363635859888,0.056952380862936,0.011445887445567,0.009636363643087,-0.011399999999607,-0.011400000002636,0.0096363636644766,0.0096363635874795
3.8649999999999,-0.028375000000002,0.010590909040519,0.05699783540839,0.011400432900206,0.010590909095665,-0.011349999999705,-0.011350000002637,0.010590909119773,0.010590909042004
3.8699999999999,-0.028250000000002,0.011545454495052,0.057043289953844,0.011354978354845,0.011545454548261,-0.011299999999802,-0.011300000002637,0.011545454575072,0.011545454496563
3.8749999999999,-0.028125000000002,0.012499999949585,0.057088744499298,0.011309523809482,0.012500000000872,-0.011249999999898,-0.011250000002638,0.01250000003036,0.012499999951107
3.8799999999999,-0.028000000000002,0.013454545404119,0.057134199044752,0.011264069264119,0.0134545454535,-0.011199999999994,-0.011200000002638,0.01345454548565,0.013454545405658
3.8849999999999,-0.027875000000002,0.014409090858652,0.057179653590206,0.011218614718755,0.014409090906141,-0.011150000000088,-0.011150000002639,0.014409090940907,0.014409090860211
3.8899999999999,-0.027750000000002,0.015363636313186,0.05722510813566,0.01117316017339,0.015363636358802,-0.011100000000182,-0.01110000000264,0.015363636396163,0.015363636314736
3.8949999999999,-0.027625000000002,0.016318181767721,0.057270562681114,0.011127705628025,0.016318181811477,-0.011050000000275,-0.01105000000264,0.016318181851457,0.016318181769297
3.8999999999999,-0.027500000000002,0.017272727222257,0.057316017226568,0.011082251082659,0.017272727264168,-0.011000000000367,-0.011000000002641,0.01727272730671,0.017272727223842
3.9049999999999,-0.027375000000002,0.018227272676793,0.057361471772022,0.011036796537292,0.018227272716876,-0.010950000000459,-0.010950000002641,0.018227272761948,0.01822727267838
3.9099999999999,-0.027250000000002,0.019181818131329,0.057406926317476,0.010991341991924,0.019181818169599,-0.010900000000549,-0.010900000002642,0.019181818217191,0.019181818132911
3.9149999999999,-0.027125000000002,0.020136363585865,0.05745238086293,0.010945887446556,0.020136363622334,-0.010850000000639,-0.010850000002642,0.020136363672436,0.020136363587466
3.9199999999999,-0.027000000000002,0.021090909040401,0.057497835408384,0.010900432901186,0.021090909075086,-0.010800000000729,-0.010800000002643,0.021090909127685,0.02109090904201
3.9249999999999,-0.026875000000002,0.022045454494939,0.057543289953839,0.010854978355816,0.022045454527856,-0.010750000000817,-0.010750000002643,0.022045454582946,0.022045454496566
3.9299999999999,-0.026750000000002,0.022999999949477,0.057588744499293,0.010809523810446,0.022999999980637,-0.010700000000905,-0.010700000002643,0.023000000038181,0.022999999951128
3.9349999999999,-0.026625000000002,0.023954545404014,0.057634199044747,0.010764069265075,0.023954545433433,-0.010650000000992,-0.010650000002644,0.023954545493369,0.023954545405646
3.9399999999999,-0.026500000000002,0.024909090858553,0.057679653590201,0.010718614719703,0.024909090886245,-0.010600000001078,-0.010600000002644,0.024909090948615,0.024909090860215
3.9449999999999,-0.026375000000002,0.025863636313091,0.057725108135655,0.01067316017433,0.025863636339069,-0.010550000001164,-0.010550000002644,0.025863636403796,0.025863636314736
3.9499999999999,-0.026250000000002,0.02681818176763,0.05777056268111,0.010627705628957,0.026818181791911,-0.010500000001248,-0.010500000002645,0.026818181858985,0.02681818176928
3.9549999999999,-0.026125000000002,0.027772727222168,0.057816017226564,0.010582251083583,0.027772727244764,-0.010450000001332,-0.010450000002645,0.027772727314211,0.027772727223824
3.9599999999999,-0.026000000000002,0.02872727267671,0.057861471772018,0.010536796538208,0.028727272697636,-0.010400000001416,-0.010400000002645,0.028727272769446,0.02872727267839
3.9649999999999,-0.025875000000002,0.029681818131248,0.057906926317472,0.010491341992833,0.029681818150516,-0.010350000001498,-0.010350000002646,0.02968181822462,0.029681818132929
3.9699999999999,-0.025750000000002,0.030636363585788,0.057952380862927,0.010445887447457,0.030636363603413,-0.01030000000158,-0.010300000002646,0.030636363679806,0.030636363587471
3.9749999999999,-0.025625000000002,0.031590909040329,0.057997835408381,0.01040043290208,0.031590909056323,-0.010250000001662,-0.010250000002646,0.031590909134989,0.031590909042018
3.9799999999999,-0.025500000000002,0.032545454494867,0.058043289953835,0.010354978356703,0.032545454509244,-0.010200000001743,-0.010200000002647,0.032545454590147,0.032545454496551
3.9849999999999,-0.025375000000002,0.03349999994941,0.05808874449929,0.010309523811325,0.033499999962182,-0.010150000001823,-0.010150000002647,0.033500000045345,0.033499999951117
3.9899999999999,-0.025250000000002,0.034454545403949,0.058134199044744,0.010264069265946,0.034454545415133,-0.010100000001902,-0.010100000002647,0.034454545500518,0.034454545405655
3.9949999999999,-0.025125000000002,0.03540909085849,0.058179653590198,0.010218614720567,0.035409090868097,-0.01005000000198,-0.010050000002647,0.035409090955663,0.03540909086018
3.9999999999999,-0.025000000000002,0.036363636313033,0.058225108135653,0.010173160175187,0.036363636321075,-0.010000000002058,-0.010000000002647,0.036363636410836,0.036363636314743
4.0049999999999,-0.024875000000002,0.037318181767575,0.058270562681107,0.010127705629806,0.037318181774065,-0.0099500000021357,-0.0099500000026476,0.037318181866035,0.0373181817693
4.0099999999999,-0.024750000000002,0.038272727222115,0.058316017226561,0.010082251084425,0.038272727227066,-0.0099000000022126,-0.0099000000026478,0.038272727321144,0.038272727223835
4.0149999999999,-0.024625000000002,0.039227272676657,0.058361471772016,0.010036796539044,0.039227272680082,-0.0098500000022886,-0.009850000002648,0.039227272776297,0.039227272678381
4.0199999999999,-0.024500000000002,0.040181818131198,0.05840692631747,0.0099913419936615,0.040181818133108,-0.0098000000023642,-0.0098000000026482,0.040181818231425,0.040181818132925
4.0249999999999,-0.024375000000002,0.041136363585738,0.058452380862924,0.0099458874482787,0.041136363586148,-0.009750000002439,-0.0097500000026485,0.041136363686599,0.041136363587461
4.0299999999999,-0.024250000000002,0.042090909040284,0.058497835408379,0.0099004329028951,0.042090909039204,-0.0097000000025131,-0.0097000000026485,0.042090909141714,0.042090909042028
4.0349999999999,-0.024125000000002,0.043045454494826,0.058543289953833,0.009854978357511,0.043045454492268,-0.0096500000025867,-0.0096500000026486,0.043045454596855,0.043045454496569
4.0399999999999,-0.024000000000002,0.043999999949368,0.058588744499288,0.0098095238121264,0.043999999945346,-0.0096000000026597,-0.0096000000026488,0.044000000051983,0.043999999951115
4.0449999999999,-0.023875000000002,0.04495454540391,0.058634199044742,0.0097640692667413,0.044954545398432,-0.0095500000027323,-0.009550000002649,0.044954545507074,0.044954545405657
4.0499999999999,-0.023750000000002,0.045909090858452,0.058679653590196,0.0097186147213555,0.045909090851534,-0.0095000000028041,-0.0095000000026492,0.045909090962192,0.045909090860195
4.0549999999999,-0.023625000000002,0.046863636312995,0.058725108135651,0.0096731601759692,0.046863636304647,-0.0094500000028754,-0.0094500000026493,0.046863636417297,0.046863636314743
4.0599999999999,-0.023500000000002,0.047818181767538,0.058770562681105,0.0096277056305822,0.047818181757773,-0.0094000000029458,-0.0094000000026494,0.047818181872449,0.047818181769309
4.0649999999999,-0.023375000000002,0.04877272722208,0.05881601722656,0.0095822510851948,0.048772727210909,-0.009350000003016,-0.0093500000026496,0.048772727327518,0.048772727223841
4.0699999999999,-0.023250000000002,0.049727272676625,0.058861471772014,0.0095367965398067,0.04972727266406,-0.0093000000030853,-0.0093000000026496,0.049727272782625,0.049727272678388
4.0749999999999,-0.023125000000002,0.050681818131168,0.058906926317469,0.0094913419944182,0.050681818117218,-0.0092500000031543,-0.0092500000026497,0.050681818237739,0.050681818132947
4.0799999999999,-0.023000000000002,0.051636363585711,0.058952380862923,0.0094458874490291,0.051636363570389,-0.0092000000032226,-0.0092000000026498,0.051636363692814,0.051636363587492
4.0849999999999,-0.022875000000002,0.052590909040254,0.058997835408377,0.0094004329036394,0.052590909023572,-0.0091500000032904,-0.00915000000265,0.05259090914788,0.052590909042021
4.0899999999999,-0.022750000000002,0.053545454494798,0.059043289953832,0.0093549783582492,0.053545454476767,-0.0091000000033576,-0.0091000000026501,0.053545454602962,0.053545454496569
4.0949999999999,-0.022625000000002,0.054499999949342,0.059088744499286,0.0093095238128585,0.054499999929971,-0.0090500000034242,-0.0090500000026501,0.054500000058066,0.054499999951131
4.0999999999999,-0.022500000000002,0.055454545403886,0.059134199044741,0.0092640692674673,0.055454545383187,-0.0090000000034903,-0.0090000000026502,0.05545454551315,0.055454545405689
4.1049999999999,-0.022375000000002,0.056409090858428,0.059179653590195,0.0092186147220755,0.056409090836414,-0.0089500000035559,-0.0089500000026504,0.056409090968198,0.056409090860214
4.1099999999999,-0.022250000000002,0.057363636312973,0.05922510813565,0.0091731601766833,0.057363636289651,-0.0089000000036209,-0.0089000000026504,0.057363636423259,0.057363636314761
4.1149999999999,-0.022125000000002,0.058318181767516,0.059270562681104,0.0091277056312905,0.058318181742899,-0.0088500000036855,-0.0088500000026505,0.058318181878315,0.058318181769307
4.1199999999999,-0.022000000000002,0.059272727222061,0.059316017226559,0.0090822510858972,0.059272727196159,-0.0088000000037494,-0.0088000000026506,0.05927272733336,0.059272727223847
4.1249999999999,-0.021875000000002,0.060227272676603,0.059361471772013,0.0090367965405035,0.060227272649428,-0.0087500000038129,-0.0087500000026507,0.060227272788402,0.060227272678378
4.1299999999999,-0.021750000000002,0.061181818131148,0.059406926317468,0.0089913419951091,0.061181818102709,-0.0087000000038757,-0.0087000000026507,0.061181818243469,0.061181818132937
4.1349999999999,-0.021625000000002,0.062136363585693,0.059452380862922,0.0089458874497143,0.062136363555998,-0.0086500000039381,-0.0086500000026507,0.062136363698517,0.062136363587491
4.1399999999999,-0.021500000000002,0.063090909040237,0.059497835408377,0.0089004329043191,0.0630909090093,-0.008600000004,-0.0086000000026508,0.063090909153544,0.063090909042035
4.1449999999999,-0.021375000000002,0.064045454494781,0.059543289953831,0.0088549783589232,0.064045454462612,-0.0085500000040613,-0.0085500000026509,0.064045454608589,0.064045454496571
4.1499999999999,-0.021250000000002,0.064999999949326,0.059588744499286,0.0088095238135271,0.064999999915931,-0.0085000000041223,-0.008500000002651,0.065000000063583,0.064999999951105
4.1549999999999,-0.021125000000002,0.065954545403869,0.05963419904474,0.0087640692681304,0.065954545369261,-0.0084500000041828,-0.0084500000026511,0.065954545518615,0.065954545405653
4.1599999999999,-0.021000000000002,0.066909090858415,0.059679653590195,0.0087186147227331,0.066909090822604,-0.0084000000042425,-0.008400000002651,0.066909090973655,0.06690909086022
4.1649999999999,-0.020875000000002,0.067863636312959,0.059725108135649,0.0086731601773355,0.067863636275955,-0.0083500000043019,-0.0083500000026511,0.06786363642868,0.067863636314753
4.1699999999999,-0.020750000000002,0.068818181767504,0.059770562681104,0.0086277056319373,0.068818181729317,-0.0083000000043608,-0.0083000000026511,0.068818181883712,0.068818181769315
4.1749999999999,-0.020625000000002,0.069772727222048,0.059816017226558,0.0085822510865387,0.069772727182687,-0.0082500000044192,-0.0082500000026512,0.069772727338717,0.069772727223859
4.1799999999999,-0.020500000000002,0.070727272676593,0.059861471772013,0.0085367965411397,0.070727272636067,-0.0082000000044771,-0.0082000000026512,0.070727272793726,0.070727272678403
4.1849999999999,-0.020375000000002,0.071681818131137,0.059906926317467,0.0084913419957402,0.071681818089456,-0.0081500000045347,-0.0081500000026513,0.071681818248699,0.071681818132929
4.1899999999999,-0.020250000000002,0.072636363585682,0.059952380862922,0.0084458874503402,0.072636363542855,-0.0081000000045917,-0.0081000000026513,0.072636363703707,0.072636363587482
4.1949999999999,-0.020125000000002,0.073590909040227,0.059997835408376,0.0084004329049398,0.073590908996263,-0.0080500000046482,-0.0080500000026513,0.073590909158709,0.073590909042041
4.1999999999999,-0.020000000000002,0.074545454494772,0.060043289953831,0.008354978359539,0.074545454449681,-0.0080000000047043,-0.0080000000026514,0.07454545461369,0.07454545449657
4.2049999999999,-0.019875000000002,0.075499999949317,0.060088744499285,0.0083095238141377,0.075499999903109,-0.0079500000047599,-0.0079500000026514,0.075500000068678,0.07549999995112
4.2099999999999,-0.019750000000002,0.076454545403862,0.06013419904474,0.008264069268736,0.076454545356544,-0.0079000000048151,-0.0079000000026514,0.07645454552367,0.076454545405675
4.2149999999999,-0.019625000000002,0.077409090858407,0.060179653590194,0.0082186147233337,0.077409090809992,-0.0078500000048697,-0.0078500000026514,0.077409090978644,0.077409090860215
4.2199999999999,-0.019500000000002,0.078363636312952,0.060225108135649,0.0081731601779312,0.078363636263446,-0.0078000000049239,-0.0078000000026514,0.078363636433618,0.078363636314762
4.2249999999999,-0.019375000000002,0.079318181767496,0.060270562681103,0.0081277056325282,0.079318181716908,-0.0077500000049778,-0.0077500000026515,0.079318181888604,0.079318181769302
4.2299999999999,-0.019250000000002,0.080272727222042,0.060316017226558,0.0080822510871247,0.080272727170381,-0.0077000000050311,-0.0077000000026515,0.080272727343574,0.080272727223854
4.2349999999999,-0.019125000000002,0.081227272676587,0.060361471772012,0.0080367965417209,0.081227272623862,-0.0076500000050841,-0.0076500000026515,0.081227272798542,0.081227272678399
4.2399999999999,-0.019000000000002,0.082181818131132,0.060406926317467,0.0079913419963166,0.082181818077351,-0.0076000000051366,-0.0076000000026515,0.0821818182535,0.082181818132949
4.2449999999999,-0.018875000000002,0.083136363585676,0.060452380862921,0.007945887450912,0.083136363530848,-0.0075500000051887,-0.0075500000026516,0.083136363708457,0.083136363587474
4.2499999999999,-0.018750000000002,0.084090909040222,0.060497835408376,0.0079004329055068,0.084090908984357,-0.0075000000052402,-0.0075000000026516,0.084090909163415,0.084090909042034
4.2549999999999,-0.018625000000002,0.085045454494766,0.06054328995383,0.0078549783601014,0.08504545443787,-0.0074500000052916,-0.0074500000026516,0.085045454618359,0.085045454496575
4.2599999999999,-0.018500000000002,0.085999999949311,0.060588744499285,0.0078095238146956,0.085999999891393,-0.0074000000053424,-0.0074000000026517,0.086000000073304,0.085999999951118
4.2649999999999,-0.018375000000002,0.086954545403858,0.06063419904474,0.0077640692692892,0.086954545344928,-0.0073500000053927,-0.0073500000026516,0.086954545528279,0.086954545405682
4.2699999999999,-0.018250000000002,0.087909090858401,0.060679653590194,0.0077186147238826,0.087909090798466,-0.0073000000054428,-0.0073000000026517,0.087909090983202,0.087909090860216
4.2749999999999,-0.018125000000002,0.088863636312949,0.060725108135649,0.0076731601784754,0.088863636252016,-0.0072500000054922,-0.0072500000026516,0.088863636438132,0.08886363631476
4.2799999999999,-0.018000000000002,0.089818181767494,0.060770562681103,0.007627705633068,0.089818181705573,-0.0072000000055414,-0.0072000000026516,0.089818181893079,0.089818181769315
4.2849999999999,-0.017875000000002,0.090772727222039,0.060816017226558,0.0075822510876601,0.090772727159137,-0.0071500000055902,-0.0071500000026516,0.090772727348003,0.090772727223855
4.2899999999999,-0.017750000000002,0.091727272676583,0.060861471772012,0.007536796542252,0.091727272612709,-0.0071000000056387,-0.0071000000026517,0.091727272802918,0.091727272678396
4.2949999999999,-0.017625000000002,0.09268181813113,0.060906926317467,0.0074913419968433,0.092681818066291,-0.0070500000056866,-0.0070500000026517,0.092681818257841,0.092681818132938
4.2999999999999,-0.017500000000002,0.093636363585675,0.060952380862921,0.0074458874514343,0.093636363519879,-0.0070000000057342,-0.0070000000026517,0.09363636371277,0.093636363587498
4.3049999999999,-0.017375000000002,0.094590909040218,0.060997835408376,0.0074004329060251,0.094590908973473,-0.0069500000057815,-0.0069500000026518,0.094590909167662,0.094590909042018
4.3099999999999,-0.017250000000002,0.095545454494764,0.06104328995383,0.0073549783606152,0.09554545442708,-0.0069000000058282,-0.0069000000026517,0.095545454622596,0.095545454496576
4.3149999999999,-0.017125000000002,0.096499999949311,0.061088744499285,0.0073095238152052,0.096499999880691,-0.0068500000058746,-0.0068500000026517,0.096500000077508,0.096499999951131
4.3199999999999,-0.017000000000002,0.097454545403856,0.061134199044739,0.0072640692697947,0.097454545334311,-0.0068000000059207,-0.0068000000026517,0.097454545532415,0.097454545405667
4.3249999999999,-0.016875000000002,0.098409090858398,0.061179653590194,0.0072186147243845,0.098409090787926,-0.0067500000059671,-0.0067500000026519,0.09840909098725,0.098409090860201
4.3299999999999,-0.016750000000002,0.099363636312943,0.061225108135648,0.0071731601789733,0.09936363624156,-0.0067000000060124,-0.0067000000026519,0.099363636442178,0.099363636314758
4.3349999999999,-0.016625000000002,0.10031818176749,0.061270562681103,0.0071277056335618,0.1003181816952,-0.0066500000060572,-0.0066500000026519,0.10031818189707,0.10031818176931
4.3399999999999,-0.016500000000002,0.10127272722204,0.061316017226558,0.0070822510881499,0.10127272714885,-0.0066000000061018,-0.0066000000026518,0.10127272735196,0.10127272722385
4.3449999999999,-0.016375000000002,0.10222727267658,0.061361471772012,0.0070367965427377,0.10222727260251,-0.0065500000061461,-0.0065500000026519,0.10222727280686,0.10222727267839
4.3499999999999,-0.016250000000002,0.10318181813113,0.061406926317467,0.0069913419973252,0.10318181805617,-0.0065000000061899,-0.0065000000026518,0.10318181826175,0.10318181813294
4.3549999999999,-0.016125000000002,0.10413636358567,0.061452380862921,0.0069458874519123,0.10413636350984,-0.0064500000062334,-0.0064500000026519,0.10413636371663,0.10413636358749
4.3599999999999,-0.016000000000002,0.10509090904022,0.061497835408376,0.006900432906499,0.10509090896352,-0.0064000000062765,-0.0064000000026518,0.10509090917152,0.10509090904204
4.3649999999999,-0.015875000000002,0.10604545449476,0.06154328995383,0.0068549783610856,0.1060454544172,-0.0063500000063195,-0.0063500000026519,0.10604545462637,0.10604545449657
4.3699999999999,-0.015750000000002,0.10699999994931,0.061588744499285,0.0068095238156716,0.1069999998709,-0.0063000000063619,-0.0063000000026519,0.10700000008127,0.10699999995112
4.3749999999999,-0.015625000000002,0.10795454540385,0.061634199044739,0.0067640692702573,0.1079545453246,-0.0062500000064039,-0.0062500000026519,0.10795454553615,0.10795454540567
4.3799999999999,-0.015500000000002,0.1089090908584,0.061679653590194,0.0067186147248427,0.1089090907783,-0.0062000000064457,-0.0062000000026519,0.10890909099101,0.10890909086021
4.3849999999999,-0.015375000000002,0.10986363631294,0.061725108135648,0.0066731601794279,0.10986363623201,-0.0061500000064871,-0.0061500000026519,0.10986363644588,0.10986363631476
4.3899999999999,-0.015250000000002,0.11081818176749,0.061770562681103,0.0066277056340127,0.11081818168573,-0.0061000000065283,-0.0061000000026519,0.11081818190074,0.1108181817693
4.3949999999999,-0.015125000000002,0.11177272722203,0.061816017226557,0.0065822510885971,0.11177272713946,-0.006050000006569,-0.0060500000026519,0.1117727273556,0.11177272722386
4.3999999999999,-0.015000000000002,0.11272727267658,0.061861471772012,0.0065367965431813,0.11272727259319,-0.0060000000066094,-0.0060000000026518,0.11272727281047,0.1127272726784
4.4049999999999,-0.014875000000002,0.11368181813112,0.061906926317467,0.0064913419977651,0.11368181804693,-0.0059500000066495,-0.0059500000026519,0.11368181826531,0.11368181813294
4.4099999999999,-0.014750000000002,0.11463636358567,0.061952380862921,0.0064458874523486,0.11463636350068,-0.0059000000066892,-0.0059000000026518,0.11463636372017,0.11463636358748
4.4149999999999,-0.014625000000002,0.11559090904022,0.061997835408376,0.0064004329069318,0.11559090895443,-0.0058500000067286,-0.0058500000026518,0.11559090917502,0.11559090904204
4.4199999999999,-0.014500000000002,0.11654545449476,0.06204328995383,0.0063549783615147,0.11654545440819,-0.0058000000067677,-0.0058000000026518,0.11654545462988,0.11654545449658
4.4249999999999,-0.014375000000002,0.11749999994931,0.062088744499285,0.0063095238160973,0.11749999986196,-0.0057500000068066,-0.0057500000026518,0.11750000008471,0.11749999995113
4.4299999999999,-0.014250000000002,0.11845454540385,0.062134199044739,0.0062640692706796,0.11845454531573,-0.005700000006845,-0.0057000000026518,0.11845454553956,0.11845454540568
4.4349999999999,-0.014125000000002,0.1194090908584,0.062179653590194,0.0062186147252616,0.11940909076951,-0.0056500000068832,-0.0056500000026518,0.1194090909944,0.11940909086021
4.4399999999999,-0.014000000000002,0.12036363631294,0.062225108135648,0.0061731601798433,0.12036363622329,-0.0056000000069211,-0.0056000000026518,0.12036363644923,0.12036363631476
4.4449999999999,-0.013875000000002,0.12131818176749,0.062270562681103,0.0061277056344247,0.12131818167708,-0.0055500000069586,-0.0055500000026518,0.12131818190408,0.12131818176932
4.4499999999999,-0.013750000000002,0.12227272722204,0.062316017226558,0.0060822510890057,0.12227272713088,-0.0055000000069958,-0.0055000000026517,0.1222727273589,0.12227272722386
4.4549999999999,-0.013625000000002,0.12322727267658,0.062361471772012,0.0060367965435867,0.12322727258468,-0.0054500000070329,-0.0054500000026519,0.1232272728137,0.12322727267839
4.4599999999999,-0.013500000000002,0.12418181813113,0.062406926317467,0.0059913419981671,0.12418181803849,-0.0054000000070694,-0.0054000000026517,0.12418181826855,0.12418181813295
4.4649999999999,-0.013375000000002,0.12513636358567,0.062452380862921,0.0059458874527474,0.12513636349231,-0.0053500000071057,-0.0053500000026517,0.12513636372339,0.1251363635875
4.4699999999999,-0.013250000000002,0.12609090904022,0.062497835408376,0.0059004329073273,0.12609090894613,-0.0053000000071418,-0.0053000000026518,0.12609090917819,0.12609090904203
4.4749999999999,-0.013125000000002,0.12704545449476,0.06254328995383,0.0058549783619069,0.12704545439995,-0.0052500000071775,-0.0052500000026517,0.12704545463301,0.12704545449657
4.4799999999999,-0.013000000000002,0.12799999994931,0.062588744499285,0.0058095238164865,0.12799999985378,-0.0052000000072131,-0.0052000000026518,0.12800000008781,0.12799999995112
4.4849999999999,-0.012875000000002,0.12895454540386,0.062634199044739,0.0057640692710655,0.12895454530762,-0.0051500000072483,-0.0051500000026517,0.12895454554263,0.12895454540567
4.4899999999999,-0.012750000000002,0.1299090908584,0.062679653590194,0.0057186147256444,0.12990909076147,-0.0051000000072832,-0.0051000000026518,0.12990909099745,0.12990909086021
4.4949999999999,-0.012625000000002,0.13086363631294,0.062725108135648,0.0056731601802231,0.13086363621531,-0.0050500000073179,-0.0050500000026518,0.13086363645226,0.13086363631476
4.4999999999999,-0.012500000000002,0.13181818176749,0.062770562681103,0.0056277056348013,0.13181818166917,-0.0050000000073522,-0.0050000000026517,0.13181818190704,0.1318181817693
4.5049999999999,-0.012375000000002,0.13277272722204,0.062816017226558,0.0055822510893793,0.13277272712303,-0.0049500000073862,-0.0049500000026517,0.13277272736186,0.13277272722385
4.5099999999999,-0.012250000000002,0.13372727267658,0.062861471772012,0.0055367965439571,0.1337272725769,-0.0049000000074199,-0.0049000000026517,0.13372727281666,0.13372727267839
4.5149999999999,-0.012125000000002,0.13468181813113,0.062906926317467,0.0054913419985346,0.13468181803077,-0.0048500000074534,-0.0048500000026517,0.13468181827148,0.13468181813295
4.5199999999999,-0.012000000000002,0.13563636358567,0.062952380862921,0.0054458874531119,0.13563636348465,-0.0048000000074866,-0.0048000000026517,0.13563636372627,0.13563636358749
4.5249999999999,-0.011875000000002,0.13659090904022,0.062997835408376,0.0054004329076888,0.13659090893853,-0.0047500000075196,-0.0047500000026516,0.13659090918107,0.13659090904204
4.5299999999999,-0.011750000000002,0.13754545449476,0.06304328995383,0.0053549783622656,0.13754545439242,-0.0047000000075523,-0.0047000000026517,0.13754545463585,0.13754545449658
4.5349999999999,-0.011625000000002,0.13849999994931,0.063088744499285,0.0053095238168421,0.13849999984632,-0.0046500000075847,-0.0046500000026516,0.13850000009063,0.13849999995113
4.5399999999999,-0.011500000000002,0.13945454540386,0.063134199044739,0.0052640692714184,0.13945454530021,-0.0046000000076169,-0.0046000000026517,0.13945454554541,0.13945454540567
4.5449999999999,-0.011375000000002,0.1404090908584,0.063179653590194,0.0052186147259943,0.14040909075412,-0.0045500000076488,-0.0045500000026516,0.1404090910002,0.14040909086022
4.5499999999999,-0.011250000000002,0.14136363631295,0.063225108135649,0.00517316018057,0.14136363620803,-0.0045000000076804,-0.0045000000026516,0.14136363645499,0.14136363631477
4.5549999999999,-0.011125000000002,0.14231818176749,0.063270562681103,0.0051277056351455,0.14231818166194,-0.0044500000077118,-0.0044500000026516,0.14231818190976,0.14231818176931
4.5599999999999,-0.011000000000002,0.14327272722204,0.063316017226558,0.0050822510897208,0.14327272711586,-0.004400000007743,-0.0044000000026517,0.14327272736453,0.14327272722385
4.5649999999999,-0.010875000000002,0.14422727267659,0.063361471772012,0.0050367965442957,0.14422727256979,-0.0043500000077738,-0.0043500000026516,0.14422727281931,0.1442272726784
4.5699999999999,-0.010750000000002,0.14518181813113,0.063406926317467,0.0049913419988706,0.14518181802372,-0.0043000000078046,-0.0043000000026516,0.14518181827409,0.14518181813295
4.5749999999999,-0.010625000000002,0.14613636358568,0.063452380862921,0.004945887453445,0.14613636347765,-0.0042500000078348,-0.0042500000026515,0.14613636372886,0.14613636358749
4.5799999999999,-0.010500000000002,0.14709090904022,0.063497835408376,0.0049004329080194,0.14709090893159,-0.0042000000078651,-0.0042000000026516,0.14709090918363,0.14709090904204
4.5849999999999,-0.010375000000002,0.14804545449477,0.063543289953831,0.0048549783625934,0.14804545438554,-0.0041500000078949,-0.0041500000026515,0.1480454546384,0.14804545449658
4.5899999999999,-0.010250000000002,0.14899999994931,0.063588744499285,0.0048095238171673,0.14899999983949,-0.0041000000079246,-0.0041000000026516,0.14900000009316,0.14899999995113
4.5949999999999,-0.010125000000002,0.14995454540386,0.06363419904474,0.0047640692717409,0.14995454529344,-0.004050000007954,-0.0040500000026516,0.14995454554792,0.14995454540567
4.5999999999999,-0.010000000000002,0.1509090908584,0.063679653590194,0.0047186147263142,0.1509090907474,-0.0040000000079831,-0.0040000000026515,0.15090909100269,0.15090909086023
4.6049999999999,-0.0098750000000019,0.15186363631295,0.063725108135649,0.0046731601808873,0.15186363620137,-0.0039500000080121,-0.0039500000026515,0.15186363645744,0.15186363631476
4.6099999999999,-0.0097500000000019,0.1528181817675,0.063770562681103,0.0046277056354602,0.15281818165533,-0.0039000000080408,-0.0039000000026515,0.1528181819122,0.15281818176931
4.6149999999999,-0.0096250000000019,0.15377272722204,0.063816017226558,0.0045822510900329,0.15377272710931,-0.0038500000080692,-0.0038500000026515,0.15377272736695,0.15377272722386
4.6199999999999,-0.0095000000000019,0.15472727267659,0.063861471772012,0.0045367965446053,0.15472727256329,-0.0038000000080975,-0.0038000000026515,0.15472727282171,0.15472727267841
4.6249999999999,-0.0093750000000019,0.15568181813113,0.063906926317467,0.0044913419991775,0.15568181801727,-0.0037500000081254,-0.0037500000026514,0.15568181827645,0.15568181813295
4.6299999999999,-0.0092500000000019,0.15663636358568,0.063952380862921,0.0044458874537497,0.15663636347126,-0.0037000000081533,-0.0037000000026515,0.15663636373121,0.15663636358749
4.6349999999999,-0.0091250000000019,0.15759090904023,0.063997835408376,0.0044004329083214,0.15759090892525,-0.0036500000081808,-0.0036500000026514,0.15759090918594,0.15759090904204
4.6399999999999,-0.0090000000000019,0.15854545449477,0.064043289953831,0.004354978362893,0.15854545437925,-0.0036000000082081,-0.0036000000026514,0.15854545464069,0.15854545449658
4.6449999999999,-0.0088750000000019,0.15949999994932,0.064088744499285,0.0043095238174644,0.15949999983325,-0.0035500000082353,-0.0035500000026514,0.15950000009543,0.15949999995113
4.6499999999999,-0.0087500000000019,0.16045454540386,0.06413419904474,0.0042640692720356,0.16045454528725,-0.0035000000082622,-0.0035000000026515,0.16045454555017,0.16045454540567
4.6549999999999,-0.0086250000000019,0.16140909085841,0.064179653590194,0.0042186147266066,0.16140909074126,-0.0034500000082889,-0.0034500000026515,0.16140909100491,0.16140909086022
4.6599999999999,-0.0085000000000019,0.16236363631295,0.064225108135649,0.0041731601811774,0.16236363619528,-0.0034000000083154,-0.0034000000026515,0.16236363645964,0.16236363631476
4.6649999999999,-0.0083750000000019,0.1633181817675,0.064270562681103,0.0041277056357479,0.16331818164929,-0.0033500000083416,-0.0033500000026514,0.16331818191437,0.16331818176931
4.6699999999999,-0.0082500000000019,0.16427272722204,0.064316017226558,0.0040822510903182,0.16427272710332,-0.0033000000083676,-0.0033000000026513,0.16427272736911,0.16427272722386
4.6749999999999,-0.0081250000000019,0.16522727267659,0.064361471772012,0.0040367965448884,0.16522727255734,-0.0032500000083934,-0.0032500000026514,0.16522727282384,0.1652272726784
4.6799999999999,-0.0080000000000019,0.16618181813113,0.064406926317467,0.0039913419994583,0.16618181801137,-0.003200000008419,-0.0032000000026514,0.16618181827857,0.16618181813295
4.6849999999999,-0.0078750000000019,0.16713636358568,0.064452380862922,0.003945887454028,0.16713636346541,-0.0031500000084444,-0.0031500000026513,0.1671363637333,0.16713636358749
4.6899999999999,-0.0077500000000019,0.16809090904023,0.064497835408376,0.0039004329085976,0.16809090891945,-0.0031000000084696,-0.0031000000026513,0.16809090918803,0.16809090904205
4.6949999999999,-0.0076250000000019,0.16904545449477,0.064543289953831,0.003854978363167,0.16904545437349,-0.0030500000084946,-0.0030500000026514,0.16904545464275,0.16904545449658
4.6999999999999,-0.0075000000000019,0.16999999994932,0.064588744499285,0.0038095238177361,0.16999999982754,-0.0030000000085194,-0.0030000000026513,0.17000000009748,0.16999999995113
4.7049999999999,-0.0073750000000019,0.17095454540386,0.06463419904474,0.0037640692723051,0.17095454528159,-0.002950000008544,-0.0029500000026513,0.1709545455522,0.17095454540568
4.7099999999999,-0.007250000000002,0.17190909085841,0.064679653590194,0.003718614726874,0.17190909073565,-0.0029000000085685,-0.0029000000026514,0.17190909100691,0.17190909086022
4.7149999999999,-0.007125000000002,0.17286363631295,0.064725108135649,0.0036731601814425,0.17286363618971,-0.0028500000085926,-0.0028500000026513,0.17286363646162,0.17286363631476
4.7199999999999,-0.007000000000002,0.1738181817675,0.064770562681103,0.0036277056360108,0.17381818164377,-0.0028000000086165,-0.0028000000026513,0.17381818191635,0.17381818176932
4.7249999999999,-0.006875000000002,0.17477272722205,0.064816017226558,0.003582251090579,0.17477272709784,-0.0027500000086403,-0.0027500000026512,0.17477272737105,0.17477272722386
4.7299999999999,-0.006750000000002,0.17572727267659,0.064861471772013,0.003536796545147,0.17572727255191,-0.0027000000086639,-0.0027000000026511,0.17572727282577,0.17572727267841
4.7349999999999,-0.006625000000002,0.17668181813114,0.064906926317467,0.003491341999715,0.17668181800599,-0.0026500000086874,-0.0026500000026513,0.17668181828047,0.17668181813295
4.7399999999999,-0.006500000000002,0.17763636358568,0.064952380862922,0.0034458874542826,0.17763636346007,-0.0026000000087106,-0.0026000000026512,0.17763636373518,0.1776363635875
4.7449999999999,-0.006375000000002,0.17859090904023,0.064997835408376,0.0034004329088501,0.17859090891415,-0.0025500000087337,-0.0025500000026512,0.17859090918988,0.17859090904204
4.7499999999999,-0.006250000000002,0.17954545449477,0.065043289953831,0.0033549783634174,0.17954545436823,-0.0025000000087565,-0.0025000000026512,0.1795454546446,0.17954545449659
4.7549999999999,-0.006125000000002,0.18049999994932,0.065088744499285,0.0033095238179845,0.18049999982232,-0.0024500000087792,-0.0024500000026512,0.18050000009929,0.18049999995113
4.7599999999999,-0.006000000000002,0.18145454540386,0.06513419904474,0.0032640692725516,0.18145454527642,-0.0024000000088018,-0.0024000000026512,0.181454545554,0.18145454540568
4.7649999999999,-0.005875000000002,0.18240909085841,0.065179653590194,0.0032186147271183,0.18240909073051,-0.0023500000088241,-0.0023500000026512,0.18240909100869,0.18240909086022
4.7699999999999,-0.005750000000002,0.18336363631296,0.065225108135649,0.003173160181685,0.18336363618462,-0.0023000000088463,-0.0023000000026513,0.18336363646339,0.18336363631477
4.7749999999999,-0.005625000000002,0.1843181817675,0.065270562681104,0.0031277056362513,0.18431818163872,-0.0022500000088681,-0.0022500000026511,0.1843181819181,0.18431818176932
4.7799999999999,-0.005500000000002,0.18527272722205,0.065316017226558,0.0030822510908176,0.18527272709283,-0.0022000000088899,-0.0022000000026511,0.18527272737279,0.18527272722386
4.7849999999999,-0.005375000000002,0.18622727267659,0.065361471772013,0.0030367965453837,0.18622727254694,-0.0021500000089116,-0.0021500000026512,0.18622727282747,0.1862272726784
4.7899999999999,-0.005250000000002,0.18718181813114,0.065406926317467,0.0029913419999496,0.18718181800106,-0.0021000000089329,-0.002100000002651,0.18718181828217,0.18718181813296
4.7949999999999,-0.005125000000002,0.18813636358569,0.065452380862922,0.0029458874545154,0.18813636345518,-0.0020500000089541,-0.0020500000026511,0.18813636373686,0.18813636358749
4.7999999999999,-0.005000000000002,0.18909090904023,0.065497835408376,0.002900432909081,0.1890909089093,-0.0020000000089752,-0.0020000000026511,0.18909090919156,0.18909090904205
4.8049999999999,-0.004875000000002,0.19004545449478,0.065543289953831,0.0028549783636464,0.19004545436343,-0.0019500000089962,-0.0019500000026511,0.19004545464624,0.19004545449659
4.8099999999999,-0.004750000000002,0.19099999994932,0.065588744499286,0.0028095238182117,0.19099999981755,-0.0019000000090169,-0.0019000000026511,0.19100000010093,0.19099999995113
4.8149999999999,-0.004625000000002,0.19195454540387,0.06563419904474,0.0027640692727767,0.19195454527169,-0.0018500000090374,-0.0018500000026509,0.19195454555561,0.19195454540568
4.8199999999999,-0.004500000000002,0.19290909085842,0.065679653590195,0.0027186147273417,0.19290909072582,-0.0018000000090578,-0.001800000002651,0.1929090910103,0.19290909086023
4.8249999999999,-0.004375000000002,0.19386363631296,0.065725108135649,0.0026731601819065,0.19386363617996,-0.001750000009078,-0.001750000002651,0.19386363646498,0.19386363631477
4.8299999999999,-0.004250000000002,0.19481818176751,0.065770562681104,0.0026277056364711,0.19481818163411,-0.0017000000090981,-0.001700000002651,0.19481818191966,0.19481818176932
4.8349999999999,-0.004125000000002,0.19577272722205,0.065816017226558,0.0025822510910356,0.19577272708825,-0.0016500000091181,-0.0016500000026509,0.19577272737434,0.19577272722387
4.8399999999999,-0.004000000000002,0.1967272726766,0.065861471772013,0.0025367965455999,0.1967272725424,-0.0016000000091378,-0.0016000000026509,0.19672727282901,0.19672727267841
4.8449999999999,-0.003875000000002,0.19768181813114,0.065906926317467,0.0024913420001641,0.19768181799655,-0.0015500000091574,-0.0015500000026509,0.19768181828369,0.19768181813296
4.8499999999999,-0.003750000000002,0.19863636358569,0.065952380862922,0.002445887454728,0.19863636345071,-0.0015000000091767,-0.0015000000026508,0.19863636373837,0.1986363635875
4.8549999999999,-0.003625000000002,0.19959090904023,0.065997835408377,0.0024004329092921,0.19959090890487,-0.0014500000091962,-0.0014500000026509,0.19959090919304,0.19959090904205
4.8599999999999,-0.003500000000002,0.20054545449478,0.066043289953831,0.0023549783638559,0.20054545435903,-0.0014000000092154,-0.0014000000026511,0.20054545464771,0.20054545449659
4.8649999999999,-0.003375000000002,0.20149999994932,0.066088744499286,0.0023095238184194,0.20149999981319,-0.0013500000092343,-0.001350000002651,0.20150000010238,0.20149999995114
4.8699999999999,-0.003250000000002,0.20245454540387,0.06613419904474,0.0022640692729828,0.20245454526736,-0.0013000000092531,-0.001300000002651,0.20245454555705,0.20245454540568
4.8749999999999,-0.003125000000002,0.20340909085842,0.066179653590195,0.0022186147275461,0.20340909072153,-0.0012500000092718,-0.001250000002651,0.20340909101172,0.20340909086023
4.8799999999999,-0.003000000000002,0.20436363631296,0.066225108135649,0.0021731601821092,0.20436363617571,-0.0012000000092902,-0.0012000000026509,0.20436363646639,0.20436363631477
4.8849999999999,-0.002875000000002,0.20531818176751,0.066270562681104,0.0021277056366722,0.20531818162988,-0.0011500000093086,-0.0011500000026508,0.20531818192106,0.20531818176932
4.8899999999999,-0.002750000000002,0.20627272722206,0.066316017226559,0.002082251091235,0.20627272708407,-0.0011000000093267,-0.0011000000026507,0.20627272737572,0.20627272722387
4.8949999999999,-0.0026250000000021,0.2072272726766,0.066361471772013,0.0020367965457978,0.20722727253825,-0.0010500000093449,-0.0010500000026509,0.20722727283038,0.20722727267841
4.8999999999999,-0.0025000000000021,0.20818181813115,0.066406926317468,0.0019913420003602,0.20818181799244,-0.0010000000093627,-0.0010000000026507,0.20818181828505,0.20818181813296
4.9049999999999,-0.0023750000000021,0.20913636358569,0.066452380862922,0.0019458874549228,0.20913636344662,-0.00095000000938058,-0.00095000000265075,0.20913636373971,0.20913636358751
4.9099999999999,-0.0022500000000021,0.21009090904024,0.066497835408377,0.0019004329094851,0.21009090890081,-0.00090000000939822,-0.0009000000026508,0.21009090919437,0.21009090904205
4.9149999999999,-0.0021250000000021,0.21104545449478,0.066543289953831,0.0018549783640472,0.21104545435501,-0.00085000000941568,-0.00085000000265076,0.21104545464903,0.21104545449659
4.9199999999999,-0.0020000000000021,0.21199999994933,0.066588744499286,0.0018095238186093,0.2119999998092,-0.00080000000943315,-0.00080000000265083,0.21200000010369,0.21199999995114
4.9249999999999,-0.0018750000000021,0.21295454540387,0.06663419904474,0.0017640692731711,0.21295454526341,-0.00075000000945029,-0.00075000000265074,0.21295454555834,0.21295454540569
4.9299999999999,-0.0017500000000021,0.21390909085842,0.066679653590195,0.001718614727733,0.21390909071761,-0.00070000000946744,-0.00070000000265082,0.213909091013,0.21390909086023
4.9349999999999,-0.0016250000000021,0.21486363631297,0.066725108135649,0.0016731601822946,0.21486363617181,-0.00065000000948432,-0.00065000000265071,0.21486363646765,0.21486363631478
4.9399999999999,-0.0015000000000021,0.21581818176751,0.066770562681104,0.001627705636856,0.21581818162602,-0.00060000000950112,-0.00060000000265071,0.2158181819223,0.21581818176932
4.9449999999999,-0.0013750000000021,0.21677272722206,0.066816017226559,0.0015822510914174,0.21677272708023,-0.00055000000951775,-0.00055000000265066,0.21677272737695,0.21677272722387
4.9499999999999,-0.0012500000000021,0.2177272726766,0.066861471772013,0.0015367965459785,0.21772727253445,-0.00050000000953419,-0.00050000000265058,0.21772727283161,0.21772727267842
4.9549999999999,-0.0011250000000021,0.21868181813115,0.066906926317468,0.0014913420005397,0.21868181798867,-0.00045000000955067,-0.00045000000265064,0.21868181828625,0.21868181813296
4.9599999999999,-0.0010000000000021,0.21963636358569,0.066952380862922,0.0014458874551008,0.21963636344288,-0.00040000000956706,-0.00040000000265077,0.2196363637409,0.2196363635875
4.9649999999999,-0.00087500000000209,0.22059090904024,0.066997835408377,0.0014004329096616,0.22059090889711,-0.00035000000958311,-0.00035000000265066,0.22059090919555,0.22059090904205
4.9699999999999,-0.0007500000000021,0.22154545449479,0.067043289953831,0.0013549783642223,0.22154545435133,-0.00030000000959905,-0.00030000000265061,0.2215454546502,0.2215454544966
4.9749999999999,-0.0006250000000021,0.22249999994933,0.067088744499286,0.0013095238187829,0.22249999980556,-0.00025000000961498,-0.00025000000265059,0.22250000010484,0.22249999995114
4.9799999999999,-0.0005000000000021,0.22345454540388,0.06713419904474,0.0012640692733435,0.22345454525979,-0.00020000000963082,-0.00020000000265069,0.22345454555948,0.22345454540568
4.9849999999999,-0.0003750000000021,0.22440909085842,0.067179653590195,0.0012186147279038,0.22440909071402,-0.00015000000964636,-0.00015000000265061,0.22440909101413,0.22440909086023
4.9899999999999,-0.0002500000000021,0.22536363631297,0.06722510813565,0.0011731601824641,0.22536363616825,-0.00010000000966194,-0.00010000000265068,0.22536363646877,0.22536363631477
4.9949999999999,-0.00012500000000211,0.22631818176751,0.067270562681104,0.0011277056370242,0.22631818162249,-5.00000096773e-05,-5.0000002650624e-05,0.22631818192341,0.22631818176932
4.9999999999999,-2.1094237467878e-15,0.22727272722206,0.067316017226559,0.0010822510915843,0.22727272707673,-9.6926098891388e-12,-2.6507008326032e-12,0.22727272737805,0.22727272722386
