time,disp_y,mises,strain_xx,strain_xy,strain_xz,strain_yy,strain_yz,strain_zz,stress_xx,stress_xy,stress_xz,stress_yy,stress_yz,stress_zz
0,0,0,0,0,0,0,0,0,0,0,0,0,0,0
0.00390625,0.1015625,0.0009060389896526,4.0440885840563e-06,5.5624301328538e-07,7.4125348623342e-07,-6.7475792436606e-07,-1.4877611175297e-08,-6.1880813040739e-07,0.00098651223154913,8.9854640607638e-05,0.00011974094777617,0.00022423702634244,-2.4033064206249e-06,0.00023327506998192
0.0078125,0.20312499999995,0.0018119682953185,8.0905157163386e-06,1.1131002873095e-06,1.4824472614912e-06,-1.3498478457283e-06,-2.9780612358687e-08,-1.2380596343238e-06,0.001973591613574,0.00017980850795,0.00023947224993319,0.00044860980739398,-4.8107143040956e-06,0.0004666679030824
0.01171875,0.30468749999998,0.0027180248928674,1.2133440102315e-05,1.6690379497046e-06,2.2237291523004e-06,-2.0244405486083e-06,-4.4645547749131e-08,-1.8566470951169e-06,0.0029598214874723,0.00026961382264458,0.00035921778614083,0.00067277922847701,-7.2119730979366e-06,0.00069988432481024
0.015625,0.40625000000003,0.0036238975853304,1.6180531771766e-05,2.2260687449901e-06,2.9649077750869e-06,-2.6996242673991e-06,-5.9555994778616e-08,-2.4760250701709e-06,0.003947062042659,0.00035959572034456,0.00047894664059097,0.00089719068248618,-9.6205837719304e-06,0.00093331055280765
0.01953125,0.50781249999997,0.0045299529218838,2.0223490940895e-05,2.7820163860967e-06,3.7061873904085e-06,-3.3742222111371e-06,-7.442117650308e-08,-3.094618872983e-06,0.004933300346177,0.00044940264698485,0.00059869180921983,0.0011213620677718,-1.202188235819e-05,0.0011665287608582
0.0234375,0.6093750000001,0.0054358274212338,2.4270532165959e-05,3.3390339722379e-06,4.4473670103506e-06,-4.0493987960591e-06,-8.933105703486e-08,-3.7139872867848e-06,0.0059205286638017,0.00053938241089997,0.00071842082474894,0.0013457705853218,-1.4430401521016e-05,0.0013999524445122
0.02734375,0.71093749999994,0.0063418850403438,2.8313483184523e-05,3.8949793879794e-06,5.1886466786326e-06,-4.7239955304944e-06,-1.0419617456616e-07,-4.3325796327113e-06,0.0069067649862365,0.00062918897805821,0.00083816600193295,0.0015699415015029,-1.6831689737611e-05,0.0016331702234524
0.03125,0.81249999999969,0.00724775921787,3.2360555294739e-05,4.4520077628437e-06,5.9298210901607e-06,-5.3991764064218e-06,-1.1910638611352e-07,-4.9519542086977e-06,0.0078940007684118,0.00071917048476706,0.00095789417610288,0.0017943518013012,-1.9240262372183e-05,0.0018665953870874
0.03515625,0.91406250000003,0.0081538146847278,3.6403512001181e-05,5.0079521878952e-06,6.6711048962569e-06,-6.0737740616207e-06,-1.3397156175716e-07,-5.5705472978735e-06,0.0088802384971645,0.00080897689189077,0.001077640021703,0.0020185230562503,-2.1641559976157e-05,0.002099813533471
0.0390625,1.0156249999999,0.009059710224217,4.0450835890439e-05,5.5650438995854e-06,7.4122778446324e-06,-6.7489910315751e-06,-1.4888441001291e-07,-6.1899689724978e-06,0.0098675353762267,0.00089896862993302,0.0011973679595175,0.002242947950363,-2.4050558540546e-05,0.0023332515137524
0.04296875,1.1171875,0.0099657779092429,4.4493137866475e-05,6.1208187053153e-06,8.1535741293388e-06,-7.4234955625335e-06,-1.6374251124138e-07,-6.8084383441936e-06,0.010853614288938,0.00098874763701248,0.0013171158208932,0.0024670811965601,-2.6450713354376e-05,0.0025664365933689
0.046875,1.2187500000001,0.010871672256204,4.8541231469354e-05,6.6781113749847e-06,8.8947294611961e-06,-8.0988220309123e-06,-1.7866368908984e-07,-7.4280056235861e-06,0.011841097853388,0.0010787718374975,0.0014368409129625,0.0026915507494986,-2.8861057468358e-05,0.0027999133999128
0.05078125,1.3203125,0.01177774433981,5.2582723580407e-05,7.2336755919246e-06,9.6360427077198e-06,-8.7732113533641e-06,-1.935130038644e-07,-8.0463218818232e-06,0.012826980331737,0.0011685168263878,0.001556591514324,0.0029156369962812,-3.1259792931941e-05,0.0030330576032224
0.0546875,1.421875,0.012683637601329,5.6631641337952e-05,7.7911835401568e-06,1.0377181244856e-05,-9.4486552873676e-06,-2.0844304104496e-07,-8.6660445400486e-06,0.013814663822215,0.0012585758026407,0.0016763138933998,0.0031401543673555,-3.3671568168801e-05,0.0032665761034609
0.05859375,1.5234375,0.013589704783181,6.0672383396148e-05,8.3465515456591e-06,1.1118510319909e-05,-1.0122937652245e-05,-2.2328431314283e-07,-9.2842194162513e-06,0.014800364353689,0.0013482890958372,0.0017960670516776,0.0033641971074106,-3.6069004430765e-05,0.0034996823609172
0.0625,1.625,0.014495523995957,6.4721085772364e-05,8.9040028204617e-06,1.1859655720466e-05,-1.079835054941e-05,-2.3821216434039e-07,-9.9039015482309e-06,0.015787995627666,0.0014383389171515,0.0019157905394599,0.0035887020679945,-3.8480426547294e-05,0.0037331899835695
0.06640625,1.7265624999999,0.015401567157874,6.8763227368766e-05,9.4597376755239e-06,1.2600948776786e-05,-1.1472831671793e-05,-2.5306867024087e-07,-1.0522341851901e-05,0.016774035560031,0.0015281114706616,0.002035537879327,0.0038128260227094,-4.0880323654295e-05,0.0039663666859229
0.0703125,1.828125,0.016307461202085,7.2811226180412e-05,1.001700601853e-05,1.3342106164003e-05,-1.2148144641185e-05,-2.6798881462857e-07,-1.1141891165931e-05,0.017761496139754,0.0016181317414549,0.0021552633034159,0.004037290083958,-4.3290500824615e-05,0.0041998387222681
0.07421875,1.9296875000001,0.017213431767607,7.6854010173112e-05,1.0572907718095e-05,1.4083387541224e-05,-1.2822716844028e-05,-2.8285237573839e-07,-1.1760453027624e-05,0.018747691910641,0.0017079312467692,0.0022750087566593,0.0042614513924878,-4.5691537619278e-05,0.0044330478551376
0.078125,2.03125,0.018119369909275,8.0900984205519e-05,1.1129910493465e-05,1.4824563995584e-05,-1.3497884272264e-05,-2.9776135433694e-07,-1.2379808549593e-05,0.019734903904681,0.0017979086181752,0.0023947372608251,0.0044858559198087,-4.8099911085198e-05,0.0046664681519326
0.08203125,2.1328125000002,0.019025430000719,8.4943175895088e-05,1.1685651574868e-05,1.556587147416e-05,-1.4172372926422e-05,-3.1261839927819e-07,-1.2998256793453e-05,0.020720956123511,0.0018876821774787,0.0025144869304412,0.0047099828523439,-5.0499895268016e-05,0.0048996477661313
0.0859375,2.234375,0.019931324073124,8.899130073347e-05,1.2242958006009e-05,1.6307018940239e-05,-1.4847703745911e-05,-3.2753986369279e-07,-1.3617830233659e-05,0.021708447244437,0.0019777086009707,0.0026342107518848,0.0049344542131521,-5.2910285673451e-05,0.0051331260882083
0.08984375,2.3359375,0.020837388656108,9.3032862455059e-05,1.2798533277524e-05,1.7048340258672e-05,-1.5522103079695e-05,-3.4239000533091e-07,-1.4236159270607e-05,0.022694346640047,0.0020674553756001,0.0027539626571702,0.0051585445152026,-5.53091547073e-05,0.0053662738997475
0.09375,2.4375000000001,0.021743217545565,9.7080822659912e-05,1.3355797990072e-05,1.7789488966402e-05,-1.6197410039262e-05,-3.5730983565417e-07,-1.4855702191167e-05,0.023681797808635,0.0021574750599347,0.0028736866791881,0.0053830063726144,-5.7719281144136e-05,0.0055997437942296
0.09765625,2.5390625,0.022649276092578,0.00010112337047948,1.3911634318445e-05,1.8530782569017e-05,-1.687194921398e-05,-3.7217071878136e-07,-1.5474218394943e-05,0.024667936348312,0.0022472640052872,0.0029934341073028,0.0056071539362905,-6.0119885341604e-05,0.0058329412224426
0.1015625,2.640625,0.023555185385059,0.00010517132448906,1.4468893982217e-05,1.9271936863841e-05,-1.754725611347e-05,-3.8709022147625e-07,-1.6093759036041e-05,0.025655386048987,0.0023372828740504,0.0031131590318513,0.00583161533627,-6.2529958853856e-05,0.0060664110180085
0.10546875,2.7421875,0.024461234364668,0.00010921309569877,1.5024525012248e-05,2.0013253047435e-05,-1.8221685054004e-05,-4.0194269095225e-07,-1.6712127797858e-05,0.026641336265485,0.0024270386558247,0.0032329101076626,0.0060557178361906,-6.4929203923056e-05,0.0062995693929526
0.109375,2.8437500000002,0.025367096053129,0.00011326107422542,1.5581792898956e-05,2.075440245958e-05,-1.8896994907888e-05,-4.1686262057819e-07,-1.7331673958775e-05,0.027628791870264,0.0025170588529083,0.0033526342434706,0.0062801807025754,-6.7339346401093e-05,0.006533040240509
0.11328125,2.9453125,0.026273157098932,0.00011730316732731,1.6137510542576e-05,2.1495707214246e-05,-1.9571469375269e-05,-4.3171862335212e-07,-1.795010406783e-05,0.028614820134999,0.0026068286261084,0.0034723834730706,0.0065043018984284,-6.9739162233804e-05,0.0067662147557839
0.1171875,3.0468750000001,0.027179025934639,0.00012135107834847,1.6694759739614e-05,2.2236860337802e-05,-2.0246769895948e-05,-4.4663773889536e-07,-1.8569637033912e-05,0.029602259385854,0.0026968458040915,0.0035921082084142,0.0067287608232941,-7.2149173206173e-05,0.006999682285623
0.12109375,3.1484375,0.02808508442472,0.00012539322720277,1.7250491096498e-05,2.2978165225568e-05,-2.092125233903e-05,-4.614943381782e-07,-1.9188077573201e-05,0.030588301181416,0.0027866177925112,0.0037118574595148,0.0069528852554333,-7.4549085398016e-05,0.0072328596406825
0.125,3.25,0.028990967536611,0.00012944122765935,1.7807763947363e-05,2.3719316469849e-05,-2.1596565670646e-05,-4.7641439091067e-07,-1.9807627300207e-05,0.031575762132234,0.0028766387914971,0.0038315818912834,0.0071773493635411,-7.6959247762493e-05,0.007466331715689
0.12890625,3.3515625000001,0.029896995409089,0.00013348354147103,1.8363539819734e-05,2.4460615878252e-05,-2.2271071618845e-05,-4.9127272072367e-07,-2.0426099019093e-05,0.032561843934713,0.0029664179708801,0.0039513302572561,0.0074014833586568,-7.9359439501515e-05,0.0076995173940014
0.1328125,3.453125,0.030802894786931,0.00013753120131832,1.8920722681407e-05,2.5201774490074e-05,-2.2946336281796e-05,-5.0618919890082e-07,-2.1045584756913e-05,0.033549222246834,0.0030564244331503,0.0040710558791658,0.0076259277114314,-8.1769024437825e-05,0.0079329721885279
0.13671875,3.5546875000001,0.031708929853095,0.0001415734994297,1.9476494201273e-05,2.5943075474809e-05,-2.3620840048354e-05,-5.2104734658673e-07,-2.1664053324445e-05,0.034535300257077,0.0031462029094364,0.0041908044997769,0.0078500608029293,-8.4169186756318e-05,0.0081661571198684
0.140625,3.65625,0.032614824647591,0.00014562120781279,2.0033690544712e-05,2.6684231350985e-05,-2.4296111501603e-05,-5.3596438479728e-07,-2.2283548465534e-05,0.035522690327981,0.0032362115495304,0.0043105296797745,0.0080745079771947,-8.6578862159561e-05,0.0083996143137905
0.14453125,3.7578125,0.033520845667182,0.00014966369853033,2.0589512030514e-05,2.7425528892526e-05,-2.4970642719656e-05,-5.5082459782654e-07,-2.2902053329236e-05,0.036508815063227,0.0033259980972369,0.0044302777441773,0.0082986522459219,-8.8979358110441e-05,0.0086328089936051
0.1484375,3.859375,0.034426757086193,0.00015371124694541,2.1146665750787e-05,2.8166689259166e-05,-2.5645891523537e-05,-5.6573987071414e-07,-2.3521518107441e-05,0.037496166335045,0.0034159998520502,0.0045500036495576,0.0085230901208307,-9.138874834613e-05,0.0088662581342
0.15234375,3.9609374999999,0.035332772794518,0.00015775374393087,2.1702490272957e-05,2.8907985089609e-05,-2.6320423489977e-05,-5.8060018454441e-07,-2.4140024317518e-05,0.038482292588396,0.0035057868902469,0.0046697514375522,0.0087472347742589,-9.3789260580251e-05,0.0090994531021176
0.15625,4.0624999999999,0.036238687176349,0.00016180126004249,2.225963519806e-05,2.9649145856816e-05,-2.6995667678903e-05,-5.955151253213e-07,-2.4759483103412e-05,0.039469636013386,0.0035957872243019,0.0047894774076396,0.0089716707660835,-9.6198597167287e-05,0.0093329005821245
0.16015625,4.1640625,0.037144648314999,0.00016584442278727,2.2815633974874e-05,3.0390424558009e-05,-2.7670294132989e-05,-6.1038268277344e-07,-2.5378115671781e-05,0.04045592371544,0.0036856024113259,0.0049092224286015,0.0091958540590897,-9.860027952494e-05,0.0095661290412849
0.1640625,4.265625,0.038050573287977,0.00016989068441952,2.3372449872418e-05,3.1131616128617e-05,-2.8345360190168e-05,-6.2528399334073e-07,-2.5997336755312e-05,0.041442962888662,0.0037755495947753,0.0050289533746228,0.0094202172209434,-0.00010100741430889,0.0097995133142662
0.16796875,4.3671875,0.038956543922843,0.00017393479620231,2.3928698791487e-05,3.1872869104002e-05,-2.9020121129418e-05,-6.4016194937933e-07,-2.6616149593812e-05,0.042429480742646,0.003865405189394,0.0051486942398773,0.0096444556352134,-0.0001034107764382,0.010032789498657
0.171875,4.46875,0.039862496832351,0.00017797994892038,2.4485222204945e-05,3.2614092315233e-05,-2.9695029975664e-05,-6.5505115913366e-07,-2.7235159928289e-05,0.043416251014127,0.0039553051254141,0.0052684302970761,0.0098687544232286,-0.00010581595647544,0.010266118046266
0.17578125,4.5703125,0.040768473810515,0.00018202479706958,2.5041664931752e-05,3.3355325729004e-05,-3.0369895526781e-05,-6.6993709454058e-07,-2.7854112348576e-05,0.044402947448232,0.0040451920274369,0.0053881680023775,0.010093035567281,-0.00010822060757963,0.010499431311453
0.1796875,4.671875,0.041674426265256,0.00018606997570079,2.5598194487889e-05,3.409655030869e-05,-3.1044808200681e-05,-6.848265267808e-07,-2.8473127258612e-05,0.045389724027078,0.0041350929557359,0.0055079042806346,0.010317335858379,-0.0001106258235569,0.010732761241329
0.18359375,4.7734374999999,0.04258040437777,0.00019011480966217,2.6154633702417e-05,3.4837784077726e-05,-3.1719671709644e-05,-6.9971232132179e-07,-2.9092076990324e-05,0.046376417023541,0.0042249792903904,0.005627642043325,0.010541616186555,-0.00011303045190583,0.010966073795061
0.1875,4.875,0.043486357288694,0.00019415997481178,2.6711159671055e-05,3.5579008593434e-05,-3.239458245954e-05,-7.1460160375325e-07,-2.9711089415168e-05,0.047363190325432,0.0043148796391704,0.005747378311247,0.010765915689296,-0.00011543564368322,0.011199403027233
0.19140625,4.9765625,0.044392341594128,0.0001982046923566,2.7267568908492e-05,3.6320242940083e-05,-3.3069429298347e-05,-7.2948615826215e-07,-3.0330017459392e-05,0.048349855059005,0.0044047611313718,0.0058671161672443,0.010990189253206,-0.00011784007171927,0.011432709627191
0.1953125,5.078125,0.045298272566802,0.00020225019846965,2.78241833325e-05,3.7061462458744e-05,-3.3744388742836e-05,-7.4437907309375e-07,-3.0949093884508e-05,0.049336711095221,0.0044946757690962,0.005986851627951,0.011214508545513,-0.00012024585026899,0.011666056176474
0.19921875,5.1796875000001,0.046204306745182,0.00020629432473086,2.8380436268272e-05,3.7802714651617e-05,-3.441915184887e-05,-7.5925715837115e-07,-3.1567909376019e-05,0.050323232458208,0.004584532012567,0.0061065923667996,0.011438747779944,-0.00012264923327534,0.011899333102482
0.203125,5.2812499999999,0.047110243971185,0.00021034098191672,2.8937353785234e-05,3.8543903475498e-05,-3.5094274635172e-05,-7.7416258858354e-07,-3.2187204183019e-05,0.051310367646562,0.0046744956114609,0.006226322869119,0.011663133895871,-0.00012505703354042,0.012132737584296
0.20703125,5.3828125,0.04801631599529,0.00021438342140913,2.9493163396333e-05,3.9285199640046e-05,-3.5768798451933e-05,-7.8902231869587e-07,-3.2805699612845e-05,0.052296479940503,0.0047642802409461,0.0063460707110844,0.011887275193715,-0.00012745745148164,0.012365929621568
0.2109375,5.484375,0.04892225178574,0.00021843197537085,3.0050577813991e-05,4.0026343185749e-05,-3.6444190810003e-05,-8.0394827578815e-07,-3.342535348975e-05,0.053284075170442,0.0048543241084139,0.0064657938992363,0.012111771402767,-0.00012986856762732,0.012599429739115
0.21484375,5.5859375,0.04982824295379,0.00022247328651336,3.0606097564004e-05,4.0767650865512e-05,-3.7118552635297e-05,-8.1879614988106e-07,-3.4043638253694e-05,0.054269913637417,0.0049440619141852,0.006585543601352,0.012335847313404,-0.0001322670703654,0.01283256425197
0.21875,5.6875000000001,0.050734185977166,0.00022652200797263,3.1163550623382e-05,4.1508802889975e-05,-3.779397010717e-05,-8.3372365339049e-07,-3.4663321564384e-05,0.055257549608979,0.0050341120237771,0.0067052681591498,0.012560353149934,-0.00013467843631693,0.013066073299153
0.22265625,5.7890625,0.051640178932153,0.00023056319124074,3.1719038684516e-05,4.2250110530385e-05,-3.8468313267921e-05,-8.4857026654892e-07,-3.5281582787233e-05,0.056243357040219,0.0051238447105757,0.0068250178549084,0.012784421696513,-0.0001370767353656,0.013299201235701
0.2265625,5.8906249999999,0.052546059982765,0.00023461127806661,3.2276324617441e-05,4.2991280997531e-05,-3.9143640646625e-05,-8.6349085634669e-07,-3.5901145522816e-05,0.057230839129072,0.0052138678228174,0.0069447453919088,0.013008890721549,-0.00013948698448677,0.013532678395395
0.23046875,5.9921875000001,0.053452122101725,0.00023865325666452,3.2832018139287e-05,4.3732574449758e-05,-3.981809812874e-05,-8.7834583568594e-07,-3.6519555766725e-05,0.058216839488982,0.0053036336994233,0.0070644927957301,0.013233005253147,-0.00014188663499542,0.013765846711627
0.234375,6.09375,0.054358043286573,0.00024270196067513,3.3389467480581e-05,4.4473723407922e-05,-4.0493512385761e-05,-8.932732791518e-07,-3.7139236867087e-05,0.05920447118522,0.0053936832084015,0.0071842168582027,0.013457510152307,-0.0001442979912476,0.01399935465917
0.23828125,6.1953125,0.055264034669423,0.00024674355117004,3.3945060494747e-05,4.521502349873e-05,-4.1167914815937e-05,-9.0812396112725e-07,-3.7757573710614e-05,0.060190377393892,0.0054834328491514,0.0073039653344102,0.013681602119233,-0.00014669694756671,0.014232503374709
0.2421875,6.296875,0.05616991312011,0.00025079119455799,3.450223048053e-05,4.5956205127437e-05,-4.1843177850435e-05,-9.2304005171404e-07,-3.8377053733947e-05,0.061177751942709,0.0055734372314703,0.0074236946744322,0.013906045630579,-0.00014910646989227,0.014465957987857
0.24609375,6.3984375,0.057075918703952,0.00025483409869257,3.5058170629898e-05,4.6697467052039e-05,-4.25177665635e-05,-9.3790510285561e-07,-3.8995640188738e-05,0.062163976696954,0.0056632429479067,0.0075434369853294,0.014130213847898,-0.00015150774738437,0.014699172723821
0.25,6.5,0.057981843351962,0.00025888122571212,3.5615207083461e-05,4.7438655669278e-05,-4.3192956282118e-05,-9.5281557473438e-07,-3.9615022866502e-05,0.06315122594869,0.0057532257596359,0.0076631674542679,0.014354627318851,-0.00015391636207248,0.014932601178297
0.25390625,6.6015625,0.058887808362261,0.00026292446883775,3.617123392403e-05,4.8179911980781e-05,-4.3867592828343e-05,-9.6768436304057e-07,-4.0233673811324e-05,0.064137532924712,0.0058430454800356,0.0077829088584339,0.014578815270958,-0.0001563182432604,0.015165832958323
0.2578125,6.703125,0.059793739933349,0.00026697082285894,3.6728068759266e-05,4.8921118426474e-05,-4.4542673002551e-05,-9.8258639874933e-07,-4.0852909789002e-05,0.065124594700761,0.0059329957226506,0.0079026422073536,0.014803183830829,-0.00015872549518258,0.015399222503787
0.26171875,6.8046875,0.060699731316087,0.00027101467955747,3.7284252423281e-05,4.9662372662546e-05,-4.5217397635509e-05,-9.9746160794548e-07,-4.14716748251e-05,0.06611105063448,0.0060228407760685,0.0080223832762574,0.015027407395615,-0.00016112841359119,0.015632485695758
0.265625,6.9062500000001,0.061605649301616,0.00027506055963741,3.7840965202729e-05,5.0403582381908e-05,-4.5892409906019e-05,-1.0123586569459e-06,-4.2090822441241e-05,0.06709799736312,0.0061127713019793,0.0081421171540005,0.015251748436873,-0.00016353485996819,0.015865851027337
0.26953125,7.0078124999999,0.062511687808777,0.00027910439465232,3.8397141506704e-05,5.1144842446758e-05,-4.6567131712972e-05,-1.027233590027e-06,-4.2709582630078e-05,0.06808444809669,0.0062026151664676,0.0082618591644763,0.015475970760758,-0.00016593773377359,0.016099113304918
0.2734375,7.1093750000001,0.06341762318764,0.00028315112243743,3.8954077211187e-05,5.1886030942788e-05,-4.724226469167e-05,-1.0421397146429e-06,-4.3328890492044e-05,0.0690716004264,0.0062925817033455,0.0083815896138349,0.015700360967084,-0.00016834564621155,0.016332521414716
0.27734375,7.2109375,0.064323620026441,0.00028719439362114,3.9510106247468e-05,5.2627300081366e-05,-4.7916906102508e-05,-1.0570086173291e-06,-4.3947544748583e-05,0.070057914343634,0.0063824017784371,0.0085013330900669,0.015924550542121,-0.00017074754587624,0.016565755068524
0.28125,7.3125,0.06522955413012,0.00029124113926429,4.0067046743448e-05,5.3368489687263e-05,-4.8592041523436e-05,-1.0719149688064e-06,-4.4566855866994e-05,0.071045071031257,0.0064723690893261,0.0086210637187117,0.016148941827086,-0.00017315549496103,0.016799164125434
0.28515625,7.4140625,0.066135565208895,0.00029528423718945,4.062303079853e-05,5.4109763523386e-05,-4.9266658333972e-05,-1.0867819956488e-06,-4.5185477166962e-05,0.072031342942865,0.0065621818982241,0.0087408079537777,0.016373121358312,-0.00017555709160481,0.017032389085291
0.2890625,7.515625,0.067041465684877,0.00029933094559603,4.1179964421429e-05,5.4850944859858e-05,-4.9941787672285e-05,-1.1016881769998e-06,-4.580478288902e-05,0.073018490494719,0.0066521480988462,0.0088605372465924,0.016597510505222,-0.00017796501320766,0.017265795893288
0.29296875,7.6171875,0.06794741311081,0.00030337522364668,4.1736255614407e-05,5.5592194760564e-05,-5.0616572528361e-05,-1.1165678098997e-06,-4.6423626960573e-05,0.074005048669729,0.0067420105223272,0.0089802776151681,0.016821758518376,-0.00018036864621457,0.017499080494711
0.296875,7.71875,0.068853401251252,0.00030741998080213,4.2292673101909e-05,5.6333433652887e-05,-5.12914254026e-05,-1.1314527221619e-06,-4.7042561647083e-05,0.074991723064968,0.0068318933472315,0.0091000162054664,0.017046034370357,-0.00018277313204153,0.01773238928471
0.30078125,7.8203125,0.069759350056868,0.00031146517685275,4.2849208306484e-05,5.7074655952659e-05,-5.1966340384829e-05,-1.1463423770112e-06,-4.7661580123332e-05,0.075978503856423,0.0069217951879704,0.0092197521154295,0.017270335687276,-0.00018517838397874,0.01796572003721
0.3046875,7.9218749999999,0.070665340235946,0.00031550987636185,4.3405611451898e-05,5.7815894075605e-05,-5.2641184985935e-05,-1.1612266449899e-06,-4.8280504155102e-05,0.076965164248666,0.0070116756960758,0.0093394905814439,0.017494608184793,-0.00018758276572913,0.018199025857466
0.30859375,8.0234375,0.071571262161343,0.00031955542552968,4.3962238983672e-05,5.8557108186094e-05,-5.3316150136062e-05,-1.1761201380648e-06,-4.8899589493881e-05,0.077952030684954,0.0071015924512086,0.0094592251685229,0.017718930000489,-0.00018998863768739,0.018432374411918
0.3125,8.125,0.072477276571191,0.00032359986485066,4.4518572638451e-05,5.9298356289571e-05,-5.3990958051419e-05,-1.1910015151897e-06,-4.9518463646693e-05,0.078938628011665,0.0071914617339036,0.0095789652467769,0.017943187389022,-0.00019239255245372,0.018665667254401
0.31640625,8.2265624999998,0.07338318820504,0.00032764550236555,4.5075224266492e-05,6.0039565334704e-05,-5.466593550669e-05,-1.2058960373434e-06,-5.0137566235663e-05,0.079925515842245,0.0072813823815102,0.0096986990156061,0.018167514339806,-0.00019479859064779,0.018899020145126
0.3203125,8.328125,0.074289230860265,0.00033168959660901,4.5631466021263e-05,6.0780824151075e-05,-5.5340694488735e-05,-1.2207736809177e-06,-5.075637483347e-05,0.080912029488895,0.0073712368188193,0.0098184408244044,0.018391751696183,-0.00019720190230209,0.019132295640495
0.32421875,8.4296875,0.075195159131532,0.00033573605212682,4.6188332835826e-05,6.1522013215981e-05,-5.6015788245368e-05,-1.2356770177716e-06,-5.1375632158693e-05,0.08189911572536,0.0074611922273257,0.0099381713656584,0.018616126126775,-0.00019960936440925,0.019365689802315
0.328125,8.53125,0.076101161559296,0.00033977961574182,4.6744438631627e-05,6.2263277565443e-05,-5.6690471729042e-05,-1.2505488902496e-06,-5.1994340916106e-05,0.082885500610392,0.0075510247020321,0.010057914068264,0.018840332634329,-0.00020201174380956,0.019598938381034
0.33203125,8.6328124999999,0.077007084892212,0.00034382599614749,4.7301283017552e-05,6.3004473819292e-05,-5.7365554783536e-05,-1.2654514646941e-06,-5.2613583717382e-05,0.083872568669469,0.0076409764874507,0.010177645770809,0.019064702749841,-0.00020441908275827,0.019832328845143
0.3359375,8.7343750000001,0.07791302623364,0.00034787039793271,4.7857610005645e-05,6.3745713884486e-05,-5.8040356838621e-05,-1.280332526347e-06,-5.3232452058535e-05,0.084859156799206,0.0077308446932195,0.010297384550571,0.01928895795153,-0.00020682294656374,0.020065619492928
0.33984375,8.8359375000001,0.078818996392022,0.0003519153062674,4.841406856653e-05,6.4486945468315e-05,-5.8715230782281e-05,-1.295219202373e-06,-5.3851416094674e-05,0.085845867823191,0.0078207341530548,0.010417121960266,0.019513242607474,-0.0002092277173064,0.020298935749318
0.34375,8.9375,0.079724996951714,0.00035595979860062,4.8970418805102e-05,6.5228184651231e-05,-5.9390045560856e-05,-1.310101337798e-06,-5.4470301633645e-05,0.086832477925073,0.0079106061146704,0.010536860597507,0.019737503098988,-0.00021163175456737,0.020532230964153
0.34765625,9.0390625,0.08063092178892,0.00036000571095113,4.9527139842525e-05,6.5969395409567e-05,-6.0065062867161e-05,-1.3249985915077e-06,-5.5089454671337e-05,0.087819432509404,0.0080005379745617,0.010656594643084,0.019961845969527,-0.00021403823401278,0.020765598062699
0.3515625,9.1406249999998,0.081536987822282,0.00036404904949513,5.0083186110335e-05,6.671066590924e-05,-6.0739713663134e-05,-1.339868276191e-06,-5.5708121530283e-05,0.088805762804996,0.0080903608332079,0.010776338339185,0.020186039525585,-0.00021644026000008,0.020998835177815
0.35546875,9.2421875,0.082442966698933,0.00036809724485961,5.064050478598e-05,6.7451820834543e-05,-6.1415055822985e-05,-1.3547901162959e-06,-5.6327706606224e-05,0.089793271079465,0.0081803892346583,0.01089606336558,0.020410514815354,-0.00021885071109396,0.021232317381139
0.359375,9.34375,0.083348970108293,0.00037213844354782,5.119599121313e-05,6.8193147400049e-05,-6.2089401967805e-05,-1.3696367916115e-06,-5.6945968131062e-05,0.090779082471734,0.0082701216575056,0.011015816118469,0.020634584349978,-0.00022124902018339,0.021465446738991
0.36328125,9.4453125000001,0.084254961260188,0.00037618810080973,5.1753691874212e-05,6.8934262013003e-05,-6.276495196967e-05,-1.3845745219483e-06,-5.7565830783219e-05,0.091766945203075,0.0083602117642958,0.01113553463287,0.020859144369479,-0.00022366203816087,0.02169900240729
0.3671875,9.546875,0.085160868593916,0.00038022881369141,5.2309055684699e-05,6.9675587236466e-05,-6.3439228885497e-05,-1.3994159384532e-06,-5.8184001625628e-05,0.092752638635453,0.008449924379836,0.011255287168968,0.0210831856038,-0.00022605949775013,0.021932106930394
0.37109375,9.6484374999999,0.08606685784641,0.00038427767895666,5.2866549385501e-05,7.041672719773e-05,-6.4114666193524e-05,-1.414345043341e-06,-5.8803713501621e-05,0.093740309395838,0.008539981054581,0.011375009778095,0.021307699794653,-0.00022847112238585,0.022165622921807
0.375,9.75,0.086972773949683,0.00038831916731487,5.3422113756756e-05,7.1158038556612e-05,-6.4789053646644e-05,-1.4291947649314e-06,-5.9422030548985e-05,0.094726190944157,0.008629726068399,0.01149476007453,0.021531786019604,-0.00023086992356584,0.022398766673841
0.37890625,9.8515625,0.087878746449697,0.00039236713237272,5.3979371482375e-05,7.1899199485961e-05,-6.5464362945805e-05,-1.4441141755789e-06,-6.0041572184214e-05,0.09571364335692,0.008719744624076,0.011614486070809,0.021756247959312,-0.0002332799822089,0.022632237236185
0.3828125,9.9531250000001,0.088784685318966,0.00039640942755489,5.4535147064019e-05,7.2640488934227e-05,-6.6138865071708e-05,-1.4589726841515e-06,-6.0660042357792e-05,0.096699720543288,0.0088095237564954,0.011734232827837,0.021980380965146,-0.00023568020282447,0.022865421557394
0.38671875,10.0546875,0.08969064178439,0.00040045667522963,5.5092217408473e-05,7.338166899242e-05,-6.6814072258389e-05,-1.4738843407811e-06,-6.1279447989926e-05,0.097686999005985,0.0088995120429071,0.01185396191416,0.022204801334843,-0.0002380890088954,0.023098856024364
0.390625,10.15625,0.09059670416927,0.00040449826858801,5.564780810658e-05,7.4122980439327e-05,-6.748847451517e-05,-1.4887353053682e-06,-6.1897784862944e-05,0.098672906041569,0.0089892613095244,0.011973712224814,0.022428893694133,-0.00024048801086717,0.023332005099492
0.39453125,10.2578125,0.091502712014584,0.00040854853780085,5.6205671569921e-05,7.4864080604327e-05,-6.8164111621517e-05,-1.5036795431209e-06,-6.251776282946e-05,0.09966091724291,0.0090793777151411,0.012093428405314,0.022653489259297,-0.0002429020800426,0.023565591756476
0.3984375,10.359375,0.092408595888465,0.00041258878403227,5.6760908132325e-05,7.5605423092706e-05,-6.8838322317248e-05,-1.5185159406732e-06,-6.3135845115977e-05,0.10064649750856,0.0091690697752217,0.01221318373036,0.022877503405944,-0.00024529872887798,0.023798672799995
0.40234375,10.4609375,0.093314589218077,0.00041663782126803,5.7318452491684e-05,7.6346551281433e-05,-6.9513784157097e-05,-1.5334468187323e-06,-6.3755589689504e-05,0.10163420995012,0.009259134633272,0.01233290443777,0.023102027535296,-0.00024771063994907,0.02403219741083
0.40625,10.5625,0.094220515689576,0.00042067909002046,5.7873952465714e-05,7.7087884397092e-05,-7.0188140837552e-05,-1.5482941166091e-06,-6.4373863452183e-05,0.10262003838991,0.0093488692444615,0.012452658248761,0.023326101097464,-0.00025010904960608,0.024265330521254
0.41015625,10.6640625,0.095126491855793,0.00042472748615775,5.8431330277877e-05,7.7829016539853e-05,-7.0863510829981e-05,-1.5632182634564e-06,-6.4993488767779e-05,0.1036075951741,0.0094389071987339,0.012572379594899,0.023550587968386,-0.00025251987332758,0.024498822301511
0.4140625,10.765625,0.09603250480395,0.00042876836668425,5.8986728585474e-05,7.8570361467698e-05,-7.1537812536434e-05,-1.5780613128463e-06,-6.5611688479749e-05,0.10459332949724,0.0095286253868842,0.012692135314013,0.023774639007746,-0.00025491759669055,0.024731935970749
0.41796875,10.8671875,0.096938474768367,0.00043281819238882,5.954448088639e-05,7.9311457246839e-05,-7.2213385430762e-05,-1.5930011101684e-06,-6.6231585031712e-05,0.10558123296542,0.0096187238354937,0.012811850786028,0.023999208856108,-0.00025733094856566,0.0249654996898
0.421875,10.96875,0.097844356963438,0.00043685926607037,6.0099931313682e-05,8.0052786133008e-05,-7.2887714380358e-05,-1.6078462633106e-06,-6.6849822863282e-05,0.10656701397307,0.0097084504429794,0.012931603913794,0.024223270977181,-0.00025972901176556,0.025198622683786
0.42578125,11.0703125,0.098750321314295,0.00044090706824725,6.0657150648014e-05,8.0793945991939e-05,-7.3563000270656e-05,-1.6227639325415e-06,-6.7469333984614e-05,0.10755442687358,0.0097984627969868,0.013051329737159,0.024447723497615,-0.00026213878910286,0.025432084974591
0.4296875,11.171875,0.099656413576913,0.00044494781433048,6.1212511599786e-05,8.1535295668517e-05,-7.4237283320533e-05,-1.6376054124139e-06,-6.808750788043e-05,0.10854012857869,0.0098881749507346,0.013171086223376,0.024671766650452,-0.0002645362589284,0.025665191913853
0.43359375,11.2734375,0.10056232335343,0.00044899805050073,6.1770370827872e-05,8.2276389643782e-05,-7.4912914530996e-05,-1.6525495041807e-06,-6.8707481118776e-05,0.10952813172629,0.0099782906721947,0.013290801403995,0.024896360451936,-0.0002669503045215,0.025898776618525
0.4375,11.375,0.10146820400819,0.00045303945447912,6.2325910505533e-05,8.3017699154848e-05,-7.5587289941353e-05,-1.6673984728986e-06,-6.9325783173059e-05,0.11051399269658,0.010068031697048,0.013410551401937,0.025120441674814,-0.00026934898408362,0.026131915845077
0.44140625,11.4765625,0.1023741609555,0.00045708680842377,6.288301207543e-05,8.3758872459696e-05,-7.626251228935e-05,-1.6823112147731e-06,-6.9945208939549e-05,0.11150129692476,0.010158025027569,0.013530279397335,0.025344868194176,-0.00027175796546334,0.026365355658375
0.4453125,11.578125,0.10328021204568,0.00046112854021703,6.3438634965719e-05,8.4500189712567e-05,-7.6936934559519e-05,-1.6971636067982e-06,-7.05635710174e-05,0.11248723761646,0.010247779494462,0.013650030645876,0.025568968614091,-0.00027415719802124,0.02659851195551
0.44921875,11.6796875,0.10418617974589,0.00046517798291704,6.3996286006466e-05,8.5241299297305e-05,-7.7612453554459e-05,-1.7120991093442e-06,-7.1183394011061e-05,0.11347504825419,0.01033786158566,0.013769748348026,0.025793516208791,-0.00027656985612483,0.026832056596571
0.453125,11.78125,0.10509202767469,0.00046922000670155,6.4551985706705e-05,8.5982604930193e-05,-7.8286917395257e-05,-1.7269545714334e-06,-7.1801811868035e-05,0.11446105969527,0.010427628460314,0.013889497719493,0.026017633495016,-0.00027896958461616,0.027065227464798
0.45703125,11.8828125,0.10599794730958,0.0004732658514818,6.5108690139815e-05,8.6723813857898e-05,-7.8961924766746e-05,-1.7418511798115e-06,-7.2420952767814e-05,0.11544799785221,0.01051755763797,0.014009231469353,0.02624197245821,-0.0002813759598157,0.027298591011884
0.4609375,11.984375,0.1069040070447,0.00047730933168226,6.5664773285681e-05,8.7465081543889e-05,-7.9636595616897e-05,-1.7567224291194e-06,-7.3039646479952e-05,0.11643436250998,0.010607386453841,0.014128974710936,0.026466174253965,-0.00028377823855005,0.027531835268395
0.46484375,12.0859375,0.10780997795521,0.0004813571993753,6.6222006661513e-05,8.8206244171106e-05,-8.0311891138102e-05,-1.7716407456972e-06,-7.3659169539645e-05,0.11742179131821,0.010697401076091,0.014248700981486,0.026690630542972,-0.00028618812045878,0.02776530095503
0.46875,12.1875,0.10871595774766,0.00048539916195315,6.6777694033579e-05,8.8947545021254e-05,-8.0986346329968e-05,-1.7864955589885e-06,-7.4277576084944e-05,0.11840778787495,0.01078716595927,0.014368449580356,0.026914744229215,-0.0002885877441443,0.027998468653411
0.47265625,12.2890625,0.10962192761027,0.00048944746624593,6.7335041835793e-05,8.9688695852623e-05,-8.1661703397344e-05,-1.8014187619565e-06,-7.4897182493537e-05,0.11939532255197,0.010877199065782,0.014488173945424,0.027139225917291,-0.00029099841539298,0.028231956217137
0.4765625,12.390625,0.1105278986904,0.00049348902191767,6.789062237035e-05,9.0430007005781e-05,-8.2336100778379e-05,-1.8162691442687e-06,-7.5515511941625e-05,0.12038122042411,0.010966946690595,0.014607924208626,0.027363315988594,-0.00029339732330494,0.02846510341607
0.48046875,12.4921875,0.11143386970927,0.00049753763288986,6.8448049537085e-05,9.1171151719917e-05,-8.3011501588536e-05,-1.8311956289844e-06,-7.6135176222098e-05,0.12136882948604,0.011056992617529,0.014727647585525,0.027587815454912,-0.00029580852468209,0.028698606475644
0.484375,12.59375,0.11233980535294,0.00050157929497502,6.9003660753838e-05,9.1912455553571e-05,-8.3685913704362e-05,-1.8460472527055e-06,-7.6753526460228e-05,0.12235475313646,0.011146745198697,0.014847396666346,0.027811911734405,-0.00029820763312935,0.028931758904611
0.48828125,12.6953125,0.11324577646461,0.00050562733634161,6.9560938083699e-05,9.2653616862069e-05,-8.4361233769979e-05,-1.860967497017e-06,-7.7373082371785e-05,0.12334222408709,0.011236766921213,0.014967122723873,0.028036378145985,-0.0003006178264412,0.029165233371847
0.4921875,12.796875,0.11415176382371,0.00050966901089956,7.0116549600194e-05,9.339492494857e-05,-8.5035648219132e-05,-1.8758191158446e-06,-7.7991434202199e-05,0.12432815078787,0.011326519550801,0.015086872491692,0.02826047508408,-0.00030301693409797,0.029398386579123
0.49609375,12.8984375,0.11505775087251,0.00051371792256959,7.0674055672202e-05,9.4136062597794e-05,-8.5711091784783e-05,-1.8907488528642e-06,-7.8611155356461e-05,0.12531583278429,0.011416578223971,0.015206594727336,0.02848499200397,-0.0003054286608473,0.029631904811622
0.5,13,0.1159636841658,0.00051775913350134,7.1229547538256e-05,9.4877381608102e-05,-8.6385439845577e-05,-1.9055955805485e-06,-7.9229419685181e-05,0.12630164706588,0.011506311525411,0.01532634625977,0.028709062140613,-0.00030782697839629,0.029865034628061
0.50390625,13.1015625,0.11686966396841,0.00052180769522191,7.1786961914012e-05,9.5618527981539e-05,-8.7060833965497e-05,-1.9205214171898e-06,-7.9849074236559e-05,0.12728924419402,0.01159635538611,0.01544606990471,0.028933558709902,-0.00031023807508451,0.030098535281499
0.5078125,13.203125,0.11777561047585,0.00052584915166371,7.2342519768276e-05,9.6359834148384e-05,-8.7735216578399e-05,-1.9353709288994e-06,-8.0467386118494e-05,0.12827511793204,0.011686099347183,0.015565819362431,0.029157643062162,-0.00031263684236067,0.030331677213377
0.51171875,13.3046875,0.11868159027355,0.00052989765873863,7.2899917847171e-05,9.7100986147005e-05,-8.8410602957036e-05,-1.9502962066537e-06,-8.1087030001244e-05,0.1292627018427,0.011776140575312,0.015685543916055,0.029382136491867,-0.00031504784876714,0.03056517520011
0.515625,13.40625,0.11958754401354,0.00053393914784178,7.3455483295006e-05,9.7842294238295e-05,-8.9084990640138e-05,-1.9651458717768e-06,-8.1705347370289e-05,0.13024858353478,0.011865885763039,0.015805293684648,0.029606222703084,-0.00031744664082549,0.030798318923598
0.51953125,13.5078125,0.12049352380396,0.00053798771806883,7.4012898594294e-05,9.8583443858609e-05,-8.9760385751679e-05,-1.9800719455188e-06,-8.2325003493669e-05,0.13123618275704,0.011955929772924,0.015925017854083,0.029830719832189,-0.00031985777581457,0.031031820043098
0.5234375,13.609375,0.12139948193593,0.00054202916654472,7.4568451305516e-05,9.9324763166874e-05,-9.0434767917646e-05,-1.9949210939694e-06,-8.2943311798384e-05,0.1322220547307,0.012045672903199,0.016044769434649,0.030054803779088,-0.00032225648441045,0.031264962075276
0.52734375,13.7109375,0.12230546164194,0.00054607782221942,7.5125890443467e-05,0.00010006590186423,-9.1110175067613e-05,-2.0098481319429e-06,-8.3562985223088e-05,0.13320967455373,0.012135720763945,0.016164491839607,0.030279305761212,-0.00032466777516001,0.031498467197635
0.53125,13.8125,0.12321148987996,0.00055011814947465,7.5681150523739e-05,0.00010080724432642,-9.1784397743828e-05,-2.0246852004557e-06,-8.4181081752667e-05,0.1341952745471,0.012225416623066,0.016284247160422,0.030503324611811,-0.0003270645323813,0.031731552579614
0.53515625,13.9140625,0.12411744345661,0.00055416849424075,7.6239039016827e-05,0.00010154833331439,-9.2460044452395e-05,-2.0396306675928e-06,-8.4801075746175e-05,0.13518330400169,0.012315537071949,0.016403961535401,0.030727924674339,-0.0003294788001496,0.031965142696113
0.5390625,14.015625,0.12502337533236,0.00055820860215265,7.6794236650168e-05,0.00010228968154399,-9.3134235968268e-05,-2.0544653398248e-06,-8.5419131388325e-05,0.13616885071726,0.012405222843489,0.016523717787875,0.030951930713109,-0.00033187517027939,0.032198216837562
0.54296875,14.1171875,0.1259293454577,0.00056225808942843,7.7351894411885e-05,0.00010303080924088,-9.3809762070931e-05,-2.0694011166097e-06,-8.603896011731e-05,0.13715667240023,0.012495306020381,0.016643438415834,0.031176481004181,-0.0003342878726831,0.032431764396689
0.546875,14.21875,0.12683525063881,0.00056629938586324,7.7907406701262e-05,0.00010377212426386,-9.448412198026e-05,-2.0842488400047e-06,-8.6657241489142e-05,0.13814250735255,0.012585042620973,0.016763189304162,0.031400556085519,-0.00033668635107769,0.0326648983187
0.55078125,14.3203125,0.12774121845973,0.0005703473946761,7.8464679429693e-05,0.00010451327989653,-9.5159437304851e-05,-2.0991687318543e-06,-8.7276791668626e-05,0.13912997036934,0.012675063600181,0.016882914444824,0.031625020587803,-0.00033909648745339,0.032898371036732
0.5546875,14.421875,0.12864719026869,0.00057438926748498,7.9020339887122e-05,0.00010525458849869,-9.5833879409848e-05,-2.1140226513934e-06,-8.7895181274751e-05,0.14011594518685,0.012764824135612,0.017002664295943,0.031849129149993,-0.00034149596676355,0.033131534233355
0.55859375,14.5234375,0.12955316765542,0.00057843766010409,7.9577713034156e-05,0.00010599573440414,-9.650924942077e-05,-2.1289467226386e-06,-8.8514804079939e-05,0.14110350127838,0.012854861336287,0.017122387865284,0.032073615893593,-0.00034390677827238,0.033365026294804
0.5625,14.625,0.13045913488176,0.00058247918391549,8.0133282366168e-05,0.00010673705394041,-9.7183642357875e-05,-2.143796724292e-06,-8.9133126770515e-05,0.14208939150094,0.012944607151458,0.017242139482682,0.032297704179857,-0.00034630562469333,0.033598172082431
0.56640625,14.7265625,0.13136510565845,0.0005865277842327,8.0690711848308e-05,0.00010747818738286,-9.785904128647e-05,-2.1587232053879e-06,-8.97527902607e-05,0.14307699787449,0.013034653452419,0.01736186103877,0.032522202982933,-0.00034871682548573,0.03383167430248
0.5703125,14.828125,0.13227112385618,0.00059056848883948,8.1246064394439e-05,0.00010821953190684,-9.8533318339074e-05,-2.1735641875863e-06,-9.0370956881304e-05,0.14406268946254,0.013124364248332,0.017481616692643,0.032746243687541,-0.00035111421491779,0.03406477899995
0.57421875,14.9296875,0.13317709696836,0.00059461861475228,8.1803894565305e-05,0.00010896062691621,-9.9208933633801e-05,-2.1885073476399e-06,-9.0990909782078e-05,0.14505066583343,0.013214475275934,0.017601332040311,0.032970831094143,-0.00035352811000337,0.034298358024036
0.578125,15.03125,0.13408302602965,0.000598658687438,8.2359086231037e-05,0.0001097019696299,-9.9883120056953e-05,-2.2033417374427e-06,-9.1608959265795e-05,0.14603620395395,0.013304160083475,0.017721087401754,0.033194835050917,-0.00035592443450997,0.034531430255643
0.58203125,15.1328125,0.13498901227592,0.0006027084014997,8.2916804061784e-05,0.00011044309218774,-0.00010055867798891,-2.2182800226222e-06,-9.2228831192892e-05,0.1470240806577,0.013394252963827,0.017840807199558,0.033419398586459,-0.0003583375421159,0.03476498922274
0.5859375,15.234375,0.13589500997377,0.00060674830209184,8.3471944395216e-05,0.000111184459189,-0.00010123284121372,-2.2331121337231e-06,-9.2846844916313e-05,0.14800957727175,0.013483929479227,0.017960566484376,0.033643392583925,-0.0003607334985245,0.034998053524276
0.58984375,15.3359375,0.13680096813906,0.00061079873251127,8.402985653067e-05,0.00011192554044629,-0.00010190849946484,-2.2480587133022e-06,-9.3466856380095e-05,0.14899762742486,0.013574053747262,0.018080279610555,0.033867997644101,-0.00036314794599498,0.035231647680868
0.59375,15.4375,0.13770686099623,0.00061483898688738,8.4585095871489e-05,0.00011266687724423,-0.00010258271118119,-2.2628951918777e-06,-9.4084941002236e-05,0.14998320958633,0.013663746256164,0.018200034016376,0.034092012206018,-0.0003655446079187,0.035464728927233
0.59765625,15.5390625,0.13861284478429,0.00061888803952411,8.5142639954193e-05,0.00011340801632318,-0.00010325817538361,-2.2778262474626e-06,-9.4704687399449e-05,0.15097092587444,0.013753811069524,0.018319756482976,0.03431653731243,-0.00036795654766703,0.035698254602178
0.6015625,15.640625,0.13951871630553,0.00062293011415984,8.5698354487952e-05,0.00011414931580493,-0.00010393264662028,-2.2926821692167e-06,-9.5323115160113e-05,0.15195694959487,0.013843580340362,0.018439504860796,0.034540657468847,-0.00037035635041192,0.035931427935491
0.60546875,15.7421875,0.14042464669205,0.00062697634031192,8.6255158484627e-05,0.0001148905172524,-0.00010460770826246,-2.3075829197135e-06,-9.5942328020838e-05,0.15294398026924,0.013933525601363,0.018559237402311,0.034765018576455,-0.00037276339472295,0.036164810769333
0.609375,15.84375,0.14133071573223,0.000631019220233,8.6811085107947e-05,0.00011563179841365,-0.000105282293836,-2.3224476542444e-06,-9.6560908065338e-05,0.15393019933551,0.014023329132822,0.018678982820666,0.034989185524367,-0.00037516462107025,0.036398024764243
0.61328125,15.9453125,0.14223669347178,0.00063506788275339,8.7368528759476e-05,0.00011637293907038,-0.00010595770215806,-2.3373746306794e-06,-9.7180581874692e-05,0.15491782090516,0.014113377722685,0.018798705542139,0.035213687957929,-0.00037757590187897,0.036631530465242
0.6171875,16.046875,0.14314262052784,0.00063910956452302,8.7924141762355e-05,0.00011711424415863,-0.00010663211714961,-2.3522264900416e-06,-9.7798936013933e-05,0.15590374929919,0.01420313059238,0.018918454825625,0.035437785336692,-0.00037997504839133,0.03686468382784
0.62109375,16.1484375,0.14404858285465,0.00064315737030147,8.8481357509843e-05,0.0001178554124978,-0.00010730740363792,-2.367144206278e-06,-9.8418447215188e-05,0.15689116313571,0.014293142366975,0.019038182018875,0.035662238114734,-0.00038238483332184,0.037098146459944
0.625,16.25,0.1449545981081,0.00064719908265584,8.9036977807968e-05,0.00011859672732836,-0.00010798182356046,-2.3819961764097e-06,-9.9036805198845e-05,0.15787709911264,0.014382896415133,0.01915793287612,0.035886337339237,-0.00038478399772772,0.037331301843805
0.62890625,16.3515625,0.14586055364934,0.00065124792462194,8.9594471037968e-05,0.00011933785398402,-0.00010865725650742,-2.3969253988557e-06,-9.965651485564e-05,0.15886476408376,0.014472953013826,0.01927765333588,0.036110850209012,-0.00038719564135362,0.037564816168146
0.6328125,16.453125,0.14676660733758,0.00065528814332809,9.0149694419669e-05,0.00012007921106524,-0.00010933146512099,-2.4117609356501e-06,-0.00010027458898521,0.15985033780873,0.014562642944716,0.019397411018231,0.036334862597722,-0.00038959215114348,0.03779789643504
0.63671875,16.5546875,0.1476725058996,0.00065933823042343,9.0707512227537e-05,0.00012082030818013,-0.00011000707430506,-2.4267039191332e-06,-0.00010089453532256,0.16083830474174,0.014652751975217,0.019517126706021,0.03655944782406,-0.00039200601770613,0.038031473352001
0.640625,16.65625,0.1485784783918,0.00066337889120239,9.126285575209e-05,0.00012156165551986,-0.00011068134532987,-2.4415442465484e-06,-0.00010151269281956,0.16182398577565,0.014742461313799,0.019636882814746,0.036783486028129,-0.00039440330136551,0.038264576049025
0.64453125,16.7578125,0.14948443614655,0.00066742825556377,9.1820485077459e-05,0.00012230276487495,-0.00011135685249075,-2.4564791216606e-06,-0.00010213250216217,0.16281177735527,0.014832539897128,0.019756600479799,0.037008029131079,-0.00039681585811441,0.038498116491849
0.6484375,16.859375,0.15039040271547,0.0006714688388082,9.2375809176708e-05,0.00012304410255472,-0.00011203111174225,-2.4713189867048e-06,-0.00010275064724432,0.16379743940125,0.014922246097776,0.01987635502807,0.037232062773874,-0.00039921306708308,0.038731214731232
0.65234375,16.9609375,0.15129637101307,0.00067551831594881,9.2933464100308e-05,0.0001237852288098,-0.00011270663557076,-2.4862548849599e-06,-0.00010337047516665,0.16478525859234,0.015012328816204,0.019996075423121,0.037456612577644,-0.0004016257891089,0.038964761566001
0.65625,17.0625,0.15220232104752,0.00067955920383074,9.348886714865e-05,0.00012452656473063,-0.00011338093905611,-2.5010976386852e-06,-0.00010398867627775,0.16577099460978,0.015102047770166,0.020115829687256,0.037680663835749,-0.00040402346471068,0.03919787551533
0.66015625,17.1640625,0.15310826264601,0.00068360778217309,9.4046294011507e-05,0.00012526769375231,-0.00011405633421011,-2.5160240618396e-06,-0.00010460833650438,0.16675859562391,0.015192093648013,0.020235550529219,0.037905161438928,-0.00040643465614333,0.039431376452931
0.6640625,17.265625,0.15401418782971,0.00068764991171647,9.4602023820701e-05,0.00012600899682701,-0.00011473081303789,-2.530880622498e-06,-0.00010522677406962,0.16774463275875,0.015281865386421,0.02035529948744,0.038129284913813,-0.00040883456209584,0.039664552747148
0.66796875,17.3671875,0.15492014806535,0.00069169721572916,9.515910861625e-05,0.00012675016785903,-0.00011540602811772,-2.5457930035271e-06,-0.00010584619159974,0.16873192474997,0.01537185600724,0.020475027115689,0.038353708436247,-0.00041124348518514,0.039897989719921
0.671875,17.46875,0.15582612121062,0.00069573985903821,9.5714972174174e-05,0.00012749146110441,-0.00011608057986916,-2.5606551432999e-06,-0.00010646472631203,0.1697180865177,0.015461649351213,0.020594774486097,0.038577861771121,-0.00041364429237922,0.040131191961119
0.67578125,17.5703125,0.15673208570365,0.00069978732530659,9.6272101813312e-05,0.00012823262529093,-0.0001167558181386,-2.5755692699689e-06,-0.00010708417449579,0.17070541785404,0.015551647215997,0.020714501008534,0.038802294682127,-0.00041605349745652,0.040364637116734
0.6796875,17.671875,0.15763803687383,0.00070383005303705,9.6827988857486e-05,0.00012897391367478,-0.00011743038182928,-2.5904323604868e-06,-0.00010770272544725,0.17169160007313,0.015641444353902,0.020834247593618,0.03902645290241,-0.00041845445823249,0.040597843548739
0.68359375,17.7734375,0.15854399406976,0.00070787703611813,9.7384992169083e-05,0.00012971508909096,-0.00011810555142882,-2.6053412111205e-06,-0.00010832208215214,0.17267881421878,0.015731421811929,0.020953975930078,0.039250857768887,-0.00042086281102716,0.040831264344351
0.6875,17.875,0.15944996453323,0.00071192012837154,9.7940976458002e-05,0.00013045636590655,-0.00011878016710308,-2.6202081689722e-06,-0.00010894070205981,0.17366508483337,0.0158212346586,0.021073720646443,0.039475037102858,-0.00042326439652627,0.041064489148309
0.69140625,17.9765625,0.16035590426734,0.00071596676346805,9.8497887532738e-05,0.00013119755171437,-0.00011945528700018,-2.6351133655818e-06,-0.00010955999302371,0.17465221459288,0.015911197216827,0.021193450661552,0.039699421824936,-0.00042567215905553,0.041297892390366
0.6953125,18.078125,0.16126192835155,0.00072000972202059,9.9053831283444e-05,0.00013193883891513,-0.00012012988410861,-2.6499788672811e-06,-0.00011017858700998,0.17563845280107,0.016001003515018,0.021313197055522,0.039923593349428,-0.00042807350933002,0.041531110573052
0.69921875,18.1796875,0.16216789525181,0.00072405758267359,9.9611065908306e-05,0.00013267999586453,-0.00012080517815677,-2.664897217354e-06,-0.00011079810956955,0.17662587985819,0.016091018339034,0.021432922408886,0.040148049262517,-0.0004304833966495,0.041764575726607
0.703125,18.28125,0.16307393356493,0.00072809893133852,0.00010016658875615,0.00013342132102967,-0.00012147954698311,-2.6797451534298e-06,-0.00011141639819581,0.17761172761633,0.016180756645224,0.021552674935562,0.040372127272064,-0.00043288190940019,0.041997712845397
0.70703125,18.3828125,0.16397985334224,0.00073214795399794,0.00010072412921983,0.0001341624481776,-0.00012215500535212,-2.6946762144972e-06,-0.00011203614163865,0.17859943649477,0.016270820873973,0.021672395474843,0.040596650753604,-0.00043529385003416,0.042231236430395
0.7109375,18.484375,0.16488584357463,0.0007361891047128,0.00010127959735072,0.00013490377632516,-0.00012282934552532,-2.7095223007509e-06,-0.00011265439401167,0.1795852361576,0.016360550341271,0.021792148483295,0.04082071727298,-0.00043769206396746,0.042464363286722
0.71484375,18.5859375,0.16579178964433,0.0007402380553032,0.00010183711667752,0.00013564490997586,-0.0001235047942326,-2.7244524037053e-06,-0.0001132741228816,0.1805729275988,0.016450611155599,0.021911870073024,0.041045236519938,-0.00044010384982931,0.042697883430484
0.71875,18.6875,0.1666977467454,0.00074427938941799,0.00010239263715437,0.00013638622672972,-0.000124179160037,-2.739300537348e-06,-0.0001138924107484,0.18155877170186,0.016540349078782,0.022031621240955,0.041269313712973,-0.00044250239449468,0.042931019367285
0.72265625,18.7890625,0.1676037199128,0.00074832805570242,0.00010295008283692,0.00013712736617658,-0.00012485456887725,-2.7542274685576e-06,-0.00011451208526852,0.18254639418668,0.016630397996734,0.022151343766986,0.041493816369963,-0.00044491366799776,0.043164525260602
0.7265625,18.890625,0.16850973987722,0.00075236862989029,0.00010350540587508,0.00013786870289548,-0.00012552882654544,-2.769067341697e-06,-0.00011513022890756,0.1835320540391,0.016720104025974,0.022271098160039,0.041717849537946,-0.00044731087827412,0.043397623002528
0.73046875,18.9921875,0.16941566334166,0.00075641827247256,0.00010406310575759,0.00013860981366786,-0.00012620437343893,-2.7840052348687e-06,-0.00011575008997893,0.18451991318873,0.016810194006995,0.022390816054038,0.041942408849183,-0.00044972392255572,0.043631177715798
0.734375,19.09375,0.17032159916021,0.0007604594711325,0.00010461859492755,0.00013935112950883,-0.00012687872021591,-2.7988515817781e-06,-0.00011636835187858,0.18550572445101,0.016899926872912,0.022510567074503,0.042166478156266,-0.00045212217859492,0.043864306887681
0.73828125,19.1953125,0.17122755782982,0.00076450777442593,0.00010517594393098,0.00014009228289086,-0.00012755407748056,-2.8137746286554e-06,-0.00011698795718359,0.18649325895533,0.016989960173466,0.0226302918516,0.042390959801201,-0.00045453282462895,0.044097794618404
0.7421875,19.296875,0.17213351833832,0.00076854976794666,0.00010573163491591,0.00014083359021899,-0.00012822853748732,-2.8286296429066e-06,-0.00011760636881488,0.18747926305985,0.017079725640262,0.022750041496914,0.042615075258974,-0.00045693248077723,0.044330964044522
0.74609375,19.3984375,0.17303946224879,0.00077259743222672,0.00010628881935473,0.0001415747490919,-0.00012890380325728,-2.8435460444861e-06,-0.00011822585479366,0.18846664246177,0.017169732357303,0.022869767161,0.04283951980666,-0.00045934205334006,0.04456441917386
0.75,19.5,0.1739455122692,0.00077663884665634,0.0001068443576918,0.00014231607227712,-0.00012957818033792,-2.8583950287654e-06,-0.00011884415730884,0.18945250612834,0.017259473165599,0.022989519367842,0.043063601767728,-0.00046174073541595,0.044797559333964
0.75390625,19.6015625,0.17485143208925,0.00078068796710091,0.00010740192147885,0.0001430572013112,-0.00013025365399028,-2.8733268250385e-06,-0.00011946391760546,0.19044023875635,0.017349541161969,0.023109240211809,0.043288130733927,-0.00046415279481391,0.045031088149937
0.7578125,19.703125,0.17575736214195,0.00078472989470112,0.00010795760138564,0.00014379849600368,-0.00013092810368955,-2.8881814384361e-06,-0.00012008231878695,0.19142622674047,0.017439304839218,0.02322898781598,0.043512242385056,-0.00046655238620891,0.045264253792399
0.76171875,19.8046875,0.1766633227485,0.0007887774612906,0.00010851475678754,0.00014453966655009,-0.00013160335614701,-2.903096527148e-06,-0.00012070178487649,0.19241358254853,0.01752930686568,0.023348715365785,0.04373668127015,-0.00046896174669314,0.045497704321542
0.765625,19.90625,0.17756938087184,0.00079281904503142,0.00010907033588352,0.00014528099268275,-0.00013227775915328,-2.9179467891075e-06,-0.00012132011708001,0.19339948734023,0.017619054258107,0.023468468048752,0.043960772818089,-0.00047136063516352,0.045730853460694
0.76953125,20.0078125,0.1784751949126,0.00079686667452623,0.00010962751634524,0.0001460221438652,-0.00013295301842245,-2.9328632767478e-06,-0.00012193959851549,0.19438685824666,0.017709060332693,0.023588192470532,0.044185215539571,-0.0004737702216285,0.045964306447618
0.7734375,20.109375,0.17938122292223,0.00080091005336439,0.00011018357110953,0.00014676341720176,-0.00013362767583117,-2.947733064183e-06,-0.00012255827184574,0.19537319834792,0.017798884563846,0.023707936624899,0.044409411324024,-0.00047617226421418,0.046197545813978
0.77734375,20.2109375,0.18028715532319,0.00080495709336653,0.00011074059097795,0.00014750459109971,-0.00013430285267391,-2.9626427352669e-06,-0.00012317763997345,0.19636042632326,0.017888864696439,0.023827664716107,0.044633819655191,-0.00047858074954311,0.046430969399111
0.78125,20.3125,0.18119319956467,0.00080899954218059,0.00011129640003902,0.00014824589217513,-0.00013497737811799,-2.9775024637577e-06,-0.00012379613658212,0.19734654091238,0.017978649237073,0.023947413351368,0.044857961479538,-0.0004809811672224,0.046664162035331
0.78515625,20.4140625,0.18209909045338,0.00081304714870986,0.00011185357113063,0.00014898704766142,-0.00013565263491178,-2.9924184598197e-06,-0.00012441561281368,0.19833390625701,0.018068653798026,0.024067138468383,0.045082402748898,-0.00048339067427857,0.046897614010899
0.7890625,20.515625,0.18300512489232,0.00081708961403665,0.00011240938448327,0.00014972834818673,-0.00013632716270563,-3.0072783290263e-06,-0.00012503411256308,0.19932002484896,0.018158439031913,0.024186887014779,0.045306545529052,-0.00048579111468887,0.047130807475156
0.79296875,20.6171875,0.18391101581,0.00082113711247783,0.00011296652584299,0.00015046950851557,-0.00013700240414147,-3.0221931497165e-06,-0.00012565356822109,0.20030736399115,0.018248438790022,0.024306612914053,0.045530980537267,-0.00048820043187729,0.047364254032097
0.796875,20.71875,0.18481702784488,0.00082517994643834,0.00011352243906511,0.00015121079568294,-0.0001376769840549,-3.037057084046e-06,-0.00012627213818423,0.20129357197187,0.018338240156672,0.024426359302629,0.045755144738343,-0.00049060152896128,0.047597465994374
0.80078125,20.8203125,0.18572296214889,0.00082922732981522,0.00011407954918545,0.00015195196143878,-0.00013835220956343,-3.051970518433e-06,-0.00012689157141083,0.20228088323357,0.018428234868419,0.024546086078572,0.045979573026253,-0.00049301062220841,0.047830906881673
0.8046875,20.921875,0.18662902002368,0.00083326920005313,0.00011463520611435,0.00015269327684652,-0.00013902665272261,-3.0668240085318e-06,-0.00012750995855714,0.20326685749459,0.018517994833856,0.024665837029054,0.046203681276968,-0.00049541003214744,0.048064070334466
0.80859375,21.0234375,0.18753486652398,0.00083731699488925,0.00011519242701901,0.00015343442760513,-0.00013970193631095,-3.081741982706e-06,-0.00012812947035779,0.20425426851652,0.018608007441533,0.024785561382367,0.046428133476486,-0.00049781985874482,0.048297531822766
0.8125,21.125,0.18844092874612,0.0008413594241483,0.00011574823105801,0.00015417572704494,-0.00014037645855953,-3.0966016491076e-06,-0.00012874796397089,0.20524037832766,0.018697791170909,0.024905309753414,0.046652274197935,-0.00050022026639431,0.048530723323792
0.81640625,21.2265625,0.18934677384727,0.00084540668169801,0.00011630530970143,0.00015491689369811,-0.0001410516661612,-3.111513723687e-06,-0.00012936737347429,0.20622765906264,0.018787780797924,0.02502503667431,0.046876695177688,-0.00050262913998021,0.048764157842496
0.8203125,21.328125,0.19025282525457,0.00084944986953579,0.00011686131377415,0.00015565817395196,-0.00014172629619676,-3.1263815593401e-06,-0.00012998601066693,0.20721395286413,0.018877596840439,0.025144781946086,0.047100879938106,-0.00050503086727801,0.048997387600617
0.82421875,21.4296875,0.19115873043569,0.00085349706860969,0.00011741837516026,0.00015639934511595,-0.00014240149562581,-3.1412929178265e-06,-0.00013060540879952,0.20820121943621,0.018967583679734,0.025264509595653,0.047325297521243,-0.00050743962518736,0.049230819239337
0.828125,21.53125,0.19206475500557,0.00085753992189412,0.0001179742918733,0.00015714063387041,-0.00014307607822086,-3.1561571564853e-06,-0.00013122398245089,0.20918743210792,0.019057385610302,0.025384256240605,0.047549462858572,-0.00050984077143224,0.04946403217526
0.83203125,21.6328125,0.19297066350948,0.00086158712092547,0.00011853135435372,0.00015788180108485,-0.00014375127747195,-3.1710685777756e-06,-0.00013184338113663,0.21017469862251,0.01914737262637,0.025503983252169,0.047773880419847,-0.00051224953948683,0.049697463674014
0.8359375,21.734375,0.19387670049201,0.00086562976089125,0.00011908721437671,0.00015862309728686,-0.00014442582988397,-3.1859304596538e-06,-0.00013246191405549,0.21116085958236,0.019237165399314,0.025623731100185,0.04799803338021,-0.00051465030502099,0.049930665937119
0.83984375,21.8359375,0.19478260836073,0.00086967729804058,0.00011964436509461,0.00015936426038523,-0.00014510107713763,-3.2008456187234e-06,-0.00013308137633321,0.2121482081602,0.019327166669129,0.025743457446845,0.048222470631409,-0.0005170596768707,0.050164114607508
0.84375,21.9375,0.19568865071908,0.00087371952126483,0.00012020011659241,0.00016010556269699,-0.00014577557025748,-3.2157029521595e-06,-0.00013369983084201,0.21313426799358,0.019416941911081,0.025863206281821,0.048446599363055,-0.00051945970765653,0.050397295730168
0.84765625,22.0390625,0.19659452044945,0.00087776706411696,0.00012075727218118,0.00016084671783828,-0.00014645081789679,-3.2306182979424e-06,-0.00013431929521761,0.21412161788267,0.019506943967729,0.025982931343107,0.048671036941983,-0.00052186910966763,0.050630744451696
0.8515625,22.140625,0.1975006051735,0.00088180920943604,0.00012131300225846,0.0001615880258539,-0.00014712530021318,-3.2454746861668e-06,-0.00013493773431426,0.21510765886898,0.019596715749443,0.026102681099477,0.048895161156412,-0.0005242689877654,0.050863921801623
0.85546875,22.2421875,0.19840649474768,0.00088585768506268,0.0001218703956549,0.00016232916982313,-0.00014780068099107,-3.2603999636929e-06,-0.0001355573741139,0.21609523506269,0.019686756221177,0.026222404356045,0.049119652854011,-0.000526679994135,0.051097417811092
0.859375,22.34375,0.19931256575324,0.00088989893318181,0.00012242589334462,0.00016307049596369,-0.00014847503598268,-3.2752465713993e-06,-0.00013617564323295,0.21708105843681,0.019776490463362,0.026342157040288,0.049343724956395,-0.00052907829230296,0.051330549939043
0.86328125,22.4453125,0.20021845354629,0.00089394806961032,0.00012298346080977,0.00016381162099515,-0.00014915051029691,-3.2901791216471e-06,-0.00013679540881451,0.21806879486288,0.019866559053886,0.026461877237677,0.049568255031713,-0.00053149047349684,0.051564079117331
0.8671875,22.546875,0.20112437695534,0.00089799021870599,0.0001235392017482,0.0001645529066177,-0.00014982499156335,-3.3050359698952e-06,-0.00013741385188804,0.2190548365622,0.019956332590094,0.026581623376706,0.04979237951869,-0.00053389042590614,0.051797255927779
0.87109375,22.6484375,0.20203032448803,0.00090203726895193,0.00012409622064153,0.00016529409101204,-0.0001505001706731,-3.3199455676341e-06,-0.00013803322019151,0.22004206713743,0.02004631256517,0.026701353163483,0.050016788428771,-0.00053629889938704,0.052030680429643
0.875,22.75,0.20293641350192,0.00090607904408044,0.00012465185413618,0.00016603540613392,-0.00015117460010235,-3.3347980875221e-06,-0.00013865158968072,0.22102801831441,0.020136068745075,0.026821104067787,0.050240891177187,-0.00053869815259973,0.052263839014527
0.87890625,22.8515625,0.20384225392854,0.00091012726275683,0.00012520918243816,0.00016677655344814,-0.00015184994401603,-3.349720725891e-06,-0.00013927118126906,0.22201553217749,0.020226098701549,0.0269408278647,0.050465368006488,-0.00054110873264392,0.05249732198869
0.8828125,22.953125,0.20474833827223,0.00091416913052103,0.00012576484236937,0.00016751786272703,-0.00015252438678295,-3.3645741101646e-06,-0.00013988956828336,0.22300150580272,0.020315859151975,0.027060577825136,0.050689476084383,-0.00054350812548813,0.052730485226625
0.88671875,23.0546875,0.20565418994911,0.0009182173606846,0.00012632217346603,0.00016825900680038,-0.0001531997321354,-3.3794969521913e-06,-0.00014050916268242,0.22398902239829,0.020405889559898,0.027180301098523,0.050913953558141,-0.0005459187384309,0.052963968623623
0.890625,23.15625,0.20656027747495,0.00092225906040437,0.00012687778868034,0.00016900032550524,-0.00015387415138137,-3.3943483879819e-06,-0.00014112751686842,0.22497495534559,0.020495642786825,0.027300052581615,0.051138051903275,-0.00054831781652015,0.053197123632292
0.89453125,23.2578125,0.20746611726436,0.0009263073072785,0.00012743512686386,0.00016974146486326,-0.00015454949898496,-3.4092714281755e-06,-0.00014174711475304,0.22596247597009,0.020585674339547,0.027419775093295,0.051362530342913,-0.0005507284614745,0.053430607795762
0.8984375,23.359375,0.20837216290254,0.00093034965785136,0.00012799090936986,0.00017048277062556,-0.00015522401076436,-3.4241299162621e-06,-0.00014236559223394,0.22694856676011,0.020675454590516,0.027539524485668,0.051586666445262,-0.00055312867878079,0.053663795592483
0.90234375,23.4609375,0.20927803973569,0.00093439723436269,0.0001285480726613,0.00017122392803288,-0.00015589926339206,-3.4390454719377e-06,-0.0001429850624864,0.22793592484802,0.020765457891441,0.027659249913004,0.05181110597995,-0.00055553811469763,0.053897246126248
0.90625,23.5625,0.21018409801223,0.00093843957376702,0.00012910385321305,0.00017196523005444,-0.00015657377301457,-3.4539041495552e-06,-0.00014360353888206,0.22892201287358,0.020855237826723,0.027778998701101,0.052035241470405,-0.00055793836262046,0.054130433137964
0.91015625,23.6640625,0.2110900022063,0.00094248765242671,0.0001296611459065,0.00017270637911324,-0.0001572490976543,-3.4688249588691e-06,-0.00014422310334031,0.22990949277705,0.02094526203105,0.027898722779832,0.052259710071657,-0.00056034864720193,0.054363909153147
0.9140625,23.765625,0.21199604756505,0.00094652939900397,0.00013021677144938,0.00017344769548529,-0.00015792352295516,-3.4836772337536e-06,-0.00014484146750708,0.23089543702781,0.021035016926438,0.028018473886085,0.052483811172876,-0.00056274786083712,0.05459706628372
0.91796875,23.8671875,0.2129019627726,0.00095057805985962,0.00013077421771078,0.00017418882931818,-0.00015859893013155,-3.4986043898677e-06,-0.00014546114242093,0.23188305813184,0.021125065937895,0.028138195505245,0.052708313594806,-0.00056515917067093,0.054830571609599
0.921875,23.96875,0.21380801399919,0.00095461898927107,0.00013132962726823,0.00017493016735033,-0.00015927323941731,-3.5134478253645e-06,-0.00014607935175269,0.23286880419065,0.021214785943329,0.028257950110438,0.052932367248679,-0.00056755695640503,0.055063687563735
0.92578125,24.0703125,0.21471392420252,0.00095866844553178,0.00013188728177699,0.00017567128348739,-0.00015994875994708,-3.5283834545102e-06,-0.00014669917675702,0.23385661823233,0.021304868594744,0.02837766887104,0.053156915808826,-0.00056996963495933,0.055297233093374
0.9296875,24.171875,0.21561981863552,0.00096271038011999,0.00013244296543518,0.0001764125741949,-0.00016062320994714,-3.5432382753786e-06,-0.00014731758020674,0.23484260788066,0.02139463287799,0.028497415831483,0.053381027946741,-0.00057236925986885,0.055530398904805
0.93359375,24.2734375,0.21652575131084,0.00096675715213925,0.0001329999107489,0.00017715376415583,-0.00016129834935022,-3.5581449501146e-06,-0.00014793689626532,0.23582977094364,0.02148460096713,0.028617146517481,0.053605420703028,-0.00057477726117236,0.055763809278281
0.9375,24.375,0.21743180944563,0.00097079974700706,0.00013355576005585,0.00017789506000891,-0.00016197289520286,-3.573006365341e-06,-0.00014855542083473,0.2368159209609,0.021574392009022,0.028736894309132,0.053829571065455,-0.00057717795132432,0.055997009232615
0.94140625,24.4765625,0.21833771567964,0.00097484762478074,0.00013411300110556,0.00017863620955452,-0.00016264819095289,-3.5879251140754e-06,-0.000149174948067,0.23780335208561,0.021664407870899,0.028856618466499,0.054054028005558,-0.00057958790304294,0.056230474933279
0.9453125,24.578125,0.21924375967477,0.00097888955953464,0.00013466867426755,0.00017937752638244,-0.00016332264332962,-3.602779327474e-06,-0.00014979334707853,0.23878934203054,0.021754170458605,0.028976369646394,0.054278140029386,-0.00058198742982273,0.056463641731486
0.94921875,24.6796875,0.22014972246815,0.00098293863869978,0.00013522622987982,0.00018011864971616,-0.00016399810995808,-3.6177109849981e-06,-0.00015041310127919,0.23977706457869,0.021844237134432,0.029096089569533,0.054502666718575,-0.00058439946680738,0.056697168120551
0.953125,24.78125,0.22105565981686,0.00098697975715528,0.00013578169625257,0.00018085996727083,-0.00016467244458584,-3.6325569254938e-06,-0.0001510313491135,0.24076285634379,0.021933966317723,0.029215840866826,0.054726731447141,-0.00058679765719516,0.056930293023444
0.95703125,24.8828125,0.22196162655628,0.00099102831721484,0.00013633911028291,0.00018160111349615,-0.00016534783845866,-3.6474827078401e-06,-0.00015165100336511,0.24175045306862,0.022024010122623,0.029335564487839,0.054951227921365,-0.00058920874511263,0.057163793590323
0.9609375,24.984375,0.22286752931783,0.00099507057392663,0.00013689487592839,0.00018234240572891,-0.00016602233525522,-3.6623407306691e-06,-0.0001522694658373,0.24273652095843,0.022113787649971,0.02945531169467,0.055175358705982,-0.00059160888726193,0.057396976073493
0.96484375,25.0859375,0.22377347080855,0.00099911715846,0.0001374517733329,0.00018308359927698,-0.00016669744804983,-3.6772452788333e-06,-0.00015288874629223,0.24372363855783,0.02220374799993,0.029575042960128,0.055399740583163,-0.00059401654504231,0.057630377020928
0.96875,25.1875,0.22467954702386,0.0010031594352582,0.00013800754150698,0.00018382489409203,-0.00016737194769935,-3.6921035851535e-06,-0.000153507212553,0.24470971132126,0.022293525935743,0.029694790584097,0.055623872535813,-0.00059641673298633,0.057863560520993
0.97265625,25.2890625,0.22558551984528,0.0010072087480978,0.00013856515641135,0.00018456602265675,-0.00016804744869804,-3.7070374414344e-06,-0.00015412700859433,0.24569749069414,0.022383602189526,0.029814511352245,0.055848412750204,-0.00059882912515479,0.058097099228496
0.9765625,25.390625,0.22649150544653,0.0010112493718599,0.00013912048358749,0.00018530736727488,-0.00016872171503908,-3.7218773436872e-06,-0.00015474515996624,0.24668316257321,0.02247330888721,0.029934267021327,0.056072448535685,-0.00060122634013408,0.058330199739758
0.98046875,25.4921875,0.22739736270722,0.0010152975708126,0.00013967781305434,0.00018604850957963,-0.00016939705568009,-3.7367997923882e-06,-0.0001553647481118,0.24767067167416,0.022563339031855,0.030053990009017,0.056296924317649,-0.00060363688953963,0.058563681694065
0.984375,25.59375,0.22830335927178,0.0010193402561036,0.00014023368536952,0.00018678979852881,-0.00017007161405778,-3.7516623408607e-06,-0.0001559832908894,0.24865684352993,0.022653133790461,0.030173736685422,0.056521079888468,-0.00060603776275442,0.058796885938745
0.98828125,25.6953125,0.22920927989277,0.0010233874107773,0.0001407907345188,0.0001875309729191,-0.00017074680737673,-3.7665731678838e-06,-0.000156602680209,0.24964409935839,0.022743118653036,0.030293464856162,0.056745494887355,-0.00060844643481199,0.059030315429835
0.9921875,25.796875,0.23011555104196,0.0010274413395022,0.00014134658616007,0.00018827348733661,-0.00017142539063467,-3.7837161414805e-06,-0.00015722628019601,0.25062840219187,0.022832358761057,0.030412406553841,0.056971238450893,-0.00061115251219104,0.059264935409805
0.99609375,25.8984375,0.23102500355329,0.0010316300670325,0.00014190223678454,0.00018903067614623,-0.00017215214943706,-3.8281463878977e-06,-0.00015791043185439,0.25159043494726,0.022914975189054,0.030521726030993,0.057215992457646,-0.00061750600785244,0.059516502609155
1,26,0.23193452423873,0.0010358136690767,0.00014245658675985,0.00018978796060511,-0.00017287813781944,-3.872497778775e-06,-0.00015859356997606,0.25255129660167,0.022997392128839,0.030631078056479,0.057460434329938,-0.00062384275170521,0.059767798741036
1.00390625,26.1015625,0.23284399653911,0.0010400036509099,0.00014301253895371,0.00019054513190567,-0.00017360508056687,-3.9169706775513e-06,-0.00015927797369799,0.25351361378141,0.023080058787433,0.03074039325417,0.057705264723488,-0.00063019283365625,0.060019434733732
1.0078125,26.203125,0.23375347720021,0.0010441865589081,0.00014356670147677,0.00019130242332977,-0.000174330959673,-3.9613310197929e-06,-0.00015996098025612,0.25447431493513,0.023162450277889,0.030849750985217,0.057949664368228,-0.00063652116243416,0.060270695660606
1.01171875,26.3046875,0.23464213770061,0.0010483910588266,0.00014412316220999,0.00019204543093907,-0.00017505939054255,-4.0011533816867e-06,-0.0001606553487149,0.25543910292482,0.023245169056917,0.030956720183192,0.058194746699371,-0.00064210623411447,0.060521218149593
1.015625,26.40625,0.23546338399115,0.0010526066912655,0.00014468466085613,0.00019276788358623,-0.00017579371257731,-4.0316322867223e-06,-0.00016138038432557,0.25640210522653,0.023328634466282,0.031060246519222,0.058436046146053,-0.00064616917078549,0.060763960667802
1.01953125,26.5078125,0.23621588872753,0.001056833177931,0.0001452640685797,0.00019347917859219,-0.00017654299012091,-4.0559311359406e-06,-0.00016215803299132,0.25735914657192,0.023414878837709,0.03116176378438,0.058668474622382,-0.00064921495680705,0.06099176008553
1.0234375,26.609375,0.23694142736593,0.0010610277061219,0.00014586048373269,0.00019417850846195,-0.00017729643272061,-4.0779753466427e-06,-0.00016295113752201,0.2583048553141,0.023503884451753,0.031261376868664,0.058893934907628,-0.0006518929583276,0.061210781114878
1.02734375,26.7109375,0.23767595557101,0.0010651986550169,0.00014648263463859,0.00019486425260261,-0.00017805334176557,-4.1011496527264e-06,-0.0001637484920066,0.25924302365808,0.023597057705194,0.031358821435094,0.05911500664924,-0.00065474958855053,0.061425300846146
1.03125,26.8125,0.23843060446448,0.0010693268425816,0.00014712469002501,0.00019554210873772,-0.00017880261196577,-4.1208469799105e-06,-0.00016453125699065,0.26017234119861,0.023693522910254,0.031455141930367,0.059334546592732,-0.000657049388892,0.061639423361896
1.03515625,26.9140625,0.23918513697748,0.0010734463098746,0.00014777273525356,0.00019621845958591,-0.00017954999427392,-4.1406068787124e-06,-0.00016531210812026,0.26109975787617,0.023790970452667,0.031551257692379,0.059553738033871,-0.00065935675819498,0.061853213017168
1.0390625,27.015625,0.2399420091505,0.0010774967828385,0.0001484483517409,0.00019691995167273,-0.00018031023756805,-4.1650918785638e-06,-0.0001661055554438,0.26200497819577,0.02389292258671,0.031651541517333,0.059759207132309,-0.00066242838091987,0.062053334330904
1.04296875,27.1171875,0.24070404960337,0.0010815219478394,0.00014915874689059,0.00019765561044555,-0.00018111273536674,-4.2002374907604e-06,-0.00016693050425375,0.26289368137277,0.024000426295443,0.031757241145896,0.059946055976919,-0.00066720748564962,0.062236584465217
1.046875,27.21875,0.24147188339161,0.0010855195228071,0.0001498953321897,0.00019844970323557,-0.00018194354638683,-4.2411126277723e-06,-0.00016777290848434,0.26376910682569,0.024112158828454,0.031872394680933,0.060119404377504,-0.00067290530259266,0.062408099463154
1.05078125,27.3203125,0.24223518919686,0.0010894834007524,0.00015064388621058,0.00019925065624636,-0.00018277543204901,-4.2822176317246e-06,-0.00016861363093641,0.26463549402313,0.024225869577221,0.031988756935693,0.060288357862228,-0.0006786394797519,0.062575675442315
1.0546875,27.421875,0.24299993097508,0.0010934145329826,0.00015140348203463,0.00020006654801665,-0.00018359762057351,-4.3270297878137e-06,-0.00016944335810137,0.26549569422405,0.024341428649028,0.032107668810441,0.060457130969821,-0.00068497466983185,0.06274329081766
1.05859375,27.5234375,0.24376401249819,0.0010973059667334,0.00015217811503748,0.00020090468208991,-0.00018440636681345,-4.376482607313e-06,-0.00017025699376047,0.26634900871628,0.024459507596452,0.032230357253395,0.060626460175256,-0.0006920657446725,0.062911899342219
1.0625,27.625,0.24452377364114,0.0011012104502318,0.00015294292322463,0.00020177578352,-0.00018521456151045,-4.4385200576533e-06,-0.00017106305246172,0.26720686808529,0.024575966477119,0.032358328166749,0.060798504397795,-0.00070117951449041,0.063084366553197
1.06640625,27.7265625,0.24528344709056,0.0011051172282427,0.00015370865068807,0.00020264688850741,-0.00018602309918462,-4.5006730076001e-06,-0.00017186972764503,0.2680652340424,0.024692555360334,0.032486282795173,0.060970663546166,-0.00071030358586588,0.063256913153263
1.0703125,27.828125,0.24604177602822,0.0011090146169842,0.00015447236520447,0.00020351652258485,-0.0001868297347713,-4.562748611991e-06,-0.00017267438688891,0.26892154440463,0.024808821857646,0.032614020948576,0.061142400936011,-0.00071940958966823,0.063429064704429
1.07421875,27.9296875,0.246797472693,0.0011129268142082,0.00015523429170978,0.00020438363266983,-0.00018764006070548,-4.6301720708254e-06,-0.00017348430088775,0.26977195741888,0.024922293300199,0.032738314690435,0.061318745249264,-0.00072931521851214,0.063605584954732
1.078125,28.03125,0.24755504983285,0.0011169892106041,0.00015599831197247,0.0002052713960726,-0.00018848984865857,-4.7220493372298e-06,-0.00017434559268301,0.27059594850019,0.025021873620976,0.032850326352488,0.061524799340624,-0.0007429872074024,0.063809981021991
1.08203125,28.1328125,0.24831153298941,0.0011211111928661,0.0001567662876113,0.0002061867971031,-0.0001893604169608,-4.8169881298171e-06,-0.0001752370761441,0.27139966665687,0.025116189983815,0.032962341230438,0.061743953350922,-0.00075725411486266,0.064026072366835
1.0859375,28.234375,0.24906522087332,0.0011252184237209,0.00015753163871308,0.00020709910130632,-0.00019022781155854,-4.9117502932452e-06,-0.00017612552245868,0.27220050145772,0.025210154346462,0.033073953981567,0.061962300465105,-0.00077147848831342,0.064241370171579
1.08984375,28.3359375,0.24981862401107,0.0011293232048046,0.0001582965630755,0.00020801113336811,-0.00019109464702281,-5.0065923253209e-06,-0.0001770135800495,0.27300085262674,0.025304033531179,0.03318551444038,0.062180490806253,-0.00078569865909212,0.064456519876474
1.09375,28.4375,0.25057155871283,0.0011334259163385,0.00015906127714592,0.00020892273859416,-0.00019196097593683,-5.1015269891028e-06,-0.0001779013611421,0.27380079674487,0.025397860417119,0.033296994846465,0.062398547504651,-0.00079991664779862,0.064671534861735
1.09765625,28.5390625,0.25132204959138,0.0011375144754955,0.00015982334524885,0.0002098314909497,-0.0001928242675365,-5.196275051056e-06,-0.00017878623317226,0.27459797400139,0.025491328748148,0.033408108353961,0.062615826667675,-0.00081409081291043,0.064885786094003
1.1015625,28.640625,0.25207167384398,0.0011415981559928,0.00016058459890821,0.00021073930624399,-0.00019368646960381,-5.2910468789003e-06,-0.00017967020964904,0.27539419522858,0.025584667907088,0.033519084143495,0.062832822330689,-0.00082825271570017,0.065099757729199
1.10546875,28.7421875,0.25282128586702,0.0011456817138793,0.00016134595545334,0.00021164720276345,-0.00019454858831509,-5.385949854143e-06,-0.00018055431525545,0.27619038878394,0.025677991861443,0.033630045448362,0.063049786951033,-0.00084241843321911,0.065313699677119
1.109375,28.84375,0.2535689850125,0.0011497545809601,0.00016210539386597,0.00021255287902756,-0.00019540839144701,-5.4807388806825e-06,-0.0001814362668342,0.27698449292645,0.025771051066271,0.033740712960167,0.063266159239412,-0.00085655151604565,0.065527057240556
1.11328125,28.9453125,0.25431496145558,0.00115381758628,0.00016286304802542,0.0002134565458607,-0.00019626605820838,-5.5754301937864e-06,-0.00018231623887275,0.2777766691709,0.025863861455199,0.033851113758215,0.063481982951144,-0.00087065451853932,0.065739874707338
1.1171875,29.046875,0.25506095480432,0.0011578805199064,0.00016362080062742,0.00021436032178896,-0.00019712365540523,-5.670250832217e-06,-0.00018319634551843,0.27856882775434,0.025956656213745,0.033961504650243,0.063697778551754,-0.00088476132763008,0.065952666159864
1.12109375,29.1484375,0.25580618855052,0.0011619391181777,0.00016437784511131,0.00021526326458165,-0.00019798028259558,-5.765100706294e-06,-0.00018407566462815,0.27936013720801,0.026049336300423,0.034071770925723,0.063913319650937,-0.00089885712189051,0.066165207891876
1.125,29.25,0.25649318531438,0.0011660008961441,0.00016513307982307,0.00021615983052017,-0.00019883631923763,-5.8605210450733e-06,-0.00018496320631669,0.280151273616,0.026141660064181,0.034180927004935,0.064128471974138,-0.00091302476184844,0.066375973969521
1.12890625,29.3515625,0.25709409961616,0.0011700820116212,0.00016588865287251,0.0002170503185726,-0.00019969477820422,-5.9577374112016e-06,-0.00018586505339181,0.28094508996294,0.02623384863998,0.034288859894696,0.064343908358804,-0.00092745501802469,0.066585146191443
1.1328125,29.453125,0.25761346317093,0.0011741714113128,0.00016664531644871,0.00021792256313067,-0.00020055203451668,-6.0585322532695e-06,-0.00018677319102592,0.28174035450568,0.026326118595298,0.034393701594942,0.064560044884813,-0.00094243568449307,0.066793848138871
1.13671875,29.5546875,0.25810413926694,0.0011782540760421,0.00016740234548929,0.0002187854563653,-0.00020141602460849,-6.1585628174614e-06,-0.00018768992800135,0.28253180505337,0.026418403226218,0.034496978297234,0.064772426611089,-0.00095727090337061,0.066998533137482
1.140625,29.65625,0.25859828620097,0.0011823304846074,0.00016816316673823,0.00021964167179109,-0.00020230549482916,-6.2529326827602e-06,-0.00018862891576024,0.28331508958296,0.026511144434357,0.03459900598718,0.064974438300561,-0.00097116860434566,0.067193410975922
1.14453125,29.7578125,0.25909583235823,0.0011864627178016,0.0001689388985556,0.00022054730785819,-0.00020323793657133,-6.3505758792685e-06,-0.00018957865922544,0.28410423735254,0.026605562360539,0.034708203485186,0.065171440293664,-0.00098555597767884,0.067388536406317
1.1484375,29.859375,0.2596048180876,0.0011906021320641,0.00016972205595811,0.00022147154823134,-0.00020417612619436,-6.4563103888025e-06,-0.00019052283558586,0.28489448032361,0.026700945712001,0.034820113181358,0.065368801136669,-0.0010012227137919,0.067585882938734
1.15234375,29.9609375,0.2601120478678,0.001194710725595,0.00017050449425308,0.00022238281497931,-0.00020510610329126,-6.5611797942672e-06,-0.00019145906339356,0.28567918588312,0.026796424896308,0.034930186397306,0.065565093200234,-0.0010167436323972,0.067782139344463
1.15625,30.0625,0.2606160984569,0.0011988111441847,0.00017128814703647,0.00022328704921895,-0.00020603430139239,-6.6658100079634e-06,-0.0001923931561621,0.2864624177995,0.026892138809418,0.035039179290582,0.065760961649775,-0.0010322124109647,0.067978056031592
1.16015625,30.1640625,0.26112114254096,0.0012029187775497,0.0001720782129793,0.00022419880557361,-0.00020698608921681,-6.7651768659048e-06,-0.0001933294889125,0.28724363282183,0.026988657821284,0.035149130944011,0.065951211569497,-0.0010468096635517,0.068171835304363
1.1640625,30.265625,0.26163124562809,0.0012070459512085,0.00017288703028246,0.00022515340756361,-0.00020801760314046,-6.8697813108668e-06,-0.00019429659723732,0.28801399441101,0.027087566882587,0.035265240981971,0.06611903958365,-0.0010622042422505,0.068351135191452
1.16796875,30.3671875,0.26214255595561,0.00121113063624,0.00017369113579106,0.00022611652938286,-0.00020904244725821,-6.9751685272686e-06,-0.00019525815813879,0.28877499446991,0.027185912560424,0.035382979858216,0.066283690021899,-0.0010777192945198,0.06852708170077
1.171875,30.46875,0.26265485926778,0.0012151626924057,0.00017449666562897,0.00022710134045582,-0.00021008351935065,-7.0845319863344e-06,-0.00019622257975359,0.28951928637848,0.027284551454178,0.035504330622634,0.0664367852087,-0.0010938648829649,0.068693639896078
1.17578125,30.5703125,0.26316742992643,0.0012191945975291,0.00017530216849645,0.00022810640299751,-0.00021112260081682,-7.1916490342882e-06,-0.00019718383797363,0.29026398848176,0.027383105315572,0.035628870803303,0.06659088795301,-0.0011096283624551,0.068861406903
1.1796875,30.671875,0.26368102591522,0.0012232118622463,0.00017610769479636,0.00022914158386694,-0.00021215229989274,-7.2950572742325e-06,-0.00019813911804779,0.29100659870007,0.027481656303016,0.035758296205446,0.066746494831038,-0.001124781303317,0.0690301397294
1.18359375,30.7734375,0.26419183290326,0.0012272616137403,0.00017691594069064,0.00023020953860592,-0.0002131910607749,-7.3992134105696e-06,-0.00019909651211083,0.29172395063216,0.027569124969263,0.035885908698726,0.066919699887626,-0.0011400660456208,0.069217720928884
1.1875,30.875,0.26469901369799,0.0012313223838514,0.00017772763968033,0.00023128069102056,-0.00021423368177283,-7.5041863991777e-06,-0.00020005483368977,0.29243318674437,0.02765338592426,0.036011692331983,0.067098336207351,-0.0011554748469821,0.069411257952383
1.19140625,30.9765625,0.26520591463495,0.00123537336463,0.0001785367027739,0.00023235091888918,-0.00021527409426074,-7.6090051768423e-06,-0.00020101066765859,0.29314068523723,0.027737271119412,0.036137367582196,0.067276476249767,-0.0011708462818065,0.069604354936114
1.1953125,31.078125,0.2657123567512,0.0012394283393848,0.00017934809591663,0.00023342048703154,-0.00021631537910953,-7.7141287133289e-06,-0.0002019677646637,0.29384891528554,0.02782144124409,0.036262829337625,0.067454762391641,-0.0011862491288248,0.06979755001891
1.19921875,31.1796875,0.26621564099451,0.0012434552084891,0.00018015384843064,0.00023448397093588,-0.00021734979690365,-7.8186857251555e-06,-0.00020291783172337,0.29455222324425,0.027904960976993,0.036387564161722,0.067631764196634,-0.0012015555842897,0.069989491986676
1.203125,31.28125,0.2667164778217,0.0012474694859028,0.00018095866381991,0.00023554286679133,-0.00021838098778346,-7.9231225931465e-06,-0.00020386495729969,0.29525336108069,0.027988425284491,0.036511643112882,0.067808183324238,-0.0012168317935368,0.07018081452538
1.20703125,31.3828125,0.26721764106402,0.0012514948769239,0.00018176639361215,0.00023660382855183,-0.00021941963656345,-8.0281796820111e-06,-0.00020481695964936,0.29594812938107,0.028072040344391,0.036633919072964,0.06798747168287,-0.0012319627094228,0.07037499630938
1.2109375,31.484375,0.26771979895384,0.0012556139019528,0.00018260122828567,0.00023767560616279,-0.00022050469895914,-8.1370147939851e-06,-0.00020580373130612,0.29661637878593,0.028158220487377,0.036746753237107,0.068183481234539,-0.0012464752773129,0.070585512615488
1.21484375,31.5859375,0.26821916024686,0.0012597025699741,0.00018342905493902,0.00023874171300439,-0.00022158216833599,-8.2452170384193e-06,-0.00020678288221734,0.29727968106834,0.028243552490961,0.036859042476164,0.068377983497491,-0.0012608812555473,0.070794533130076
1.21875,31.6875,0.26871648299806,0.0012637813928609,0.00018425642595305,0.0002398037291832,-0.00022265697771605,-8.3534053152798e-06,-0.0002077598986825,0.29794140696908,0.028328872534138,0.036970751363302,0.068571991297035,-0.0012752649092645,0.071002972876631
1.22265625,31.7890625,0.26921384443196,0.0012678533582982,0.00018508167070074,0.00024086566969367,-0.00022373029467999,-8.4615631224573e-06,-0.00020873509853181,0.29860199882028,0.028413860954141,0.037082477821991,0.068765609096598,-0.0012896219688823,0.071211073753484
1.2265625,31.890625,0.26971088169147,0.0012719305693431,0.00018590957797919,0.00024192720573597,-0.00022480486600912,-8.5701018492016e-06,-0.00020971188025226,0.29926346329984,0.028499165176456,0.03719399930376,0.068959452847305,-0.0013040090670057,0.071419340970734
1.23046875,31.9921875,0.27020582619304,0.0012759813777431,0.0001867310240112,0.00024298420625337,-0.00022587286618226,-8.6780843617317e-06,-0.00021068205510635,0.29992061627954,0.028583666908904,0.03730510503985,0.069151975114615,-0.0013183003406087,0.071626298244451
1.234375,32.09375,0.27069796095154,0.001280057096294,0.00018756035794517,0.00024405577756602,-0.00022694947384085,-8.78458356781e-06,-0.00021165159752469,0.30058220109843,0.028668977860391,0.037418137943929,0.069345981502939,-0.0013323168535218,0.071836230486049
1.23828125,32.1953125,0.27118674270756,0.0012841885063482,0.00018840924996225,0.00024516369892907,-0.00022804304970786,-8.8922713817383e-06,-0.00021262142798502,0.30125371436123,0.028756500132213,0.037536122202345,0.06954376906278,-0.0013464723958984,0.072052631620023
1.2421875,32.296875,0.27167487216567,0.0012883307279461,0.00018926337132835,0.00024627406971901,-0.00022913928321578,-9.0008549849891e-06,-0.00021359332452153,0.30192708793228,0.028844668903355,0.037654262129204,0.069742183870384,-0.0013607388448115,0.072269741306954
1.24609375,32.3984375,0.27216159750856,0.0012924530130124,0.00019011261118929,0.00024738105681275,-0.0002302306010358,-9.1090560449393e-06,-0.00021456032379383,0.30259719581071,0.028932214095717,0.037772065238435,0.069939577179088,-0.0013749342321101,0.07248582330616
1.25,32.5,0.27264636406266,0.001296565729544,0.00019096128447238,0.00024848402061095,-0.00023131932547316,-9.2172217663969e-06,-0.00021552537687718,0.30326576192934,0.029019726566159,0.037889283986471,0.070136477578491,-0.0013891060631644,0.072701299768825
1.25390625,32.6015625,0.27313040884712,0.0013006648401751,0.00019180651767535,0.000249585063228,-0.00023240478748406,-9.3251666137298e-06,-0.00021648704399297,0.30393209440274,0.029106774967155,0.038006311186822,0.070332661083924,-0.0014032284539617,0.072916074079826
1.2578125,32.703125,0.273614317841,0.0013047705415666,0.00019265467701031,0.00025068614458794,-0.00023349190399159,-9.4335012350561e-06,-0.00021745059650831,0.30459951520221,0.029194162214098,0.038123172458112,0.070529126742561,-0.0014173831439292,0.073131079615231
1.26171875,32.8046875,0.27409703995772,0.0013088571265198,0.00019349785629513,0.00025178442121002,-0.00023457436535652,-9.5414543850355e-06,-0.00021840938673688,0.30526379955502,0.029280901257558,0.038239781383847,0.070724607416039,-0.0014314674532909,0.073345114602803
1.265625,32.90625,0.27457831966132,0.0013129397171026,0.00019434194827449,0.00025287961820681,-0.00023565563642163,-9.6495234785206e-06,-0.00021936762411857,0.30592745484248,0.029367784319352,0.038355879905583,0.070919868133099,-0.0014455487649648,0.073558816719706
1.26953125,33.0078125,0.27505868842039,0.0013170043425883,0.00019518110892858,0.00025397261167225,-0.00023673259716596,-9.7572290358775e-06,-0.00022032131326207,0.30658815810782,0.029454013092493,0.038471807396526,0.071114196623429,-0.0014595622944319,0.073771622152905
1.2734375,33.109375,0.2755430970742,0.0013210830947541,0.00019602424350565,0.00025506478913627,-0.00023781269536577,-9.8668534831708e-06,-0.00022128140831944,0.30725087612224,0.029540666680531,0.038587304459375,0.071308994136172,-0.0014738462819443,0.073984350052776
1.27734375,33.2109375,0.27603994037814,0.0013251713622919,0.00019686591411374,0.00025615582010789,-0.00023889439041809,-9.9806190942732e-06,-0.00022225134099213,0.30791420215051,0.029626902994566,0.038702340025297,0.071503658786309,-0.0014887583435848,0.074195595276074
1.28125,33.3125,0.2765400726386,0.0013292601182166,0.00019770546675363,0.00025723864997217,-0.00023997578671011,-1.0097946567022e-05,-0.00022322334872662,0.30857745299346,0.029712745379479,0.038815954015316,0.071698219083798,-0.0015042151079803,0.074406343882156
1.28515625,33.4140625,0.27705195098333,0.0013333551335366,0.00019853875897498,0.0002583162055093,-0.00024105807917723,-1.0225276148334e-05,-0.00022420011951893,0.30924121475652,0.029797404880388,0.038928461511094,0.071892998341986,-0.0015212443082129,0.074616677692733
1.2890625,33.515625,0.27756584318385,0.001337453638724,0.00019937170238488,0.00025938757423338,-0.00024214057650512,-1.0354330630188e-05,-0.00022517929954695,0.30990552056706,0.029881932328145,0.039039849564189,0.072087917697661,-0.0015385165445418,0.074826787138028
1.29296875,33.6171875,0.27808051419668,0.0013415376646186,0.00020019910521053,0.00026045421452065,-0.00024321914693865,-1.0483580578312e-05,-0.00022615539174431,0.3105674705629,0.029965685241995,0.039150621277398,0.072282122995411,-0.001555802092074,0.075036047557909
1.296875,33.71875,0.27859476713785,0.0013456215817008,0.00020102743024302,0.00026151711010801,-0.00024429729637277,-1.0613273343235e-05,-0.00022713210654871,0.31122944470204,0.030049550288718,0.039260730547705,0.072476322173045,-0.0015731280022217,0.075245126984043
1.30078125,33.8203125,0.27911027204525,0.0013496875762793,0.00020184726622535,0.00026257909773343,-0.00024537123801379,-1.0744988266569e-05,-0.00022810341141712,0.31188840958375,0.030132142668381,0.039370846401457,0.072669744697087,-0.0015907648544983,0.075453632314548
1.3046875,33.921875,0.27963174196001,0.0013537537510729,0.00020265762885638,0.00026364189295193,-0.00024644400359864,-1.0883036916425e-05,-0.00022907370004479,0.31254737611353,0.030213040310528,0.039480925971601,0.072863797546416,-0.0016093892045568,0.075662751240542
1.30859375,34.0234375,0.28015373101547,0.0013578057205765,0.00020346158857261,0.00026470106241327,-0.00024751152458485,-1.1021022267039e-05,-0.0002300413906547,0.31320415572459,0.030293028335372,0.039590567500223,0.073057485758816,-0.0016279830716754,0.075871081318506
1.3125,34.125,0.28067417274267,0.0013618444048942,0.0002042616540626,0.00026575315388148,-0.00024857487007004,-1.1158879132203e-05,-0.0002310064087244,0.31385888645806,0.03037251896485,0.039699214381371,0.073250628967919,-0.0016465355402022,0.076078625776421
1.31640625,34.2265625,0.28119280143325,0.0013658705246295,0.0002050590759811,0.00026680029954367,-0.00024963506900801,-1.1296500968822e-05,-0.00023196848813625,0.31451159971166,0.030451696943661,0.039807196070817,0.073443095970123,-0.0016650291332831,0.076285462247965
1.3203125,34.328125,0.28171110669,0.0013698919863896,0.00020585546549225,0.00026784584249285,-0.00025069373487748,-1.1434212843996e-05,-0.00023292992903983,0.31516356315035,0.030530722241082,0.03991492648145,0.073635358108918,-0.0016835086911408,0.076491948038668
1.32421875,34.4296875,0.28223102183407,0.0013739152924357,0.0002066462802064,0.00026889641702074,-0.00025176208929256,-1.1570578742258e-05,-0.00023389960576319,0.31581276922676,0.030608523237531,0.04002312285502,0.073824659415637,-0.0017017262117001,0.076695709982052
1.328125,34.53125,0.28275268615237,0.0013779561352416,0.00020743980665855,0.00026995657147719,-0.00025283956824109,-1.1704497214536e-05,-0.00023487936836703,0.31646277968042,0.030686322085626,0.040132328221408,0.0740132027072,-0.0017194891399965,0.076898546894962
1.33203125,34.6328125,0.28327592369289,0.0013819765045536,0.00020821911659106,0.00027102941388196,-0.00025391464441883,-1.1830969456377e-05,-0.00023587644676728,0.31710511348801,0.030761742234352,0.040243485739142,0.074197887263301,-0.0017360215309836,0.077094341266649
1.3359375,34.734375,0.28379882463155,0.0013859878172537,0.00020899514167659,0.00027210244653307,-0.00025498548814241,-1.1957482404739e-05,-0.00023687282055331,0.31774602326484,0.030836701602493,0.040354731641293,0.074382485416476,-0.0017525402265572,0.07728948331163
1.33984375,34.8359375,0.28432101253248,0.0013899815919342,0.00020976205513134,0.00027317943349197,-0.00025605259060183,-1.208092305114e-05,-0.00023786524766591,0.31838122035322,0.030910088553353,0.040466425139359,0.074567415015315,-0.0017685621895422,0.077484835306362
1.34375,34.9375,0.28484550356229,0.0013940784258276,0.00021055268653556,0.00027430203810912,-0.0002571567298361,-1.2193928631009e-05,-0.00023889424085241,0.31897244709498,0.030979489560279,0.040570948998461,0.074783510127329,-0.0017826418762027,0.077708456725721
1.34765625,35.0390625,0.28537162903535,0.0013982206150136,0.00021135884284994,0.00027543919511849,-0.00025827084187073,-1.2306500872563e-05,-0.00023993667180238,0.31955339374875,0.03104791819477,0.040670554095872,0.075010999981374,-0.001796378398604,0.077942484473634
1.3515625,35.140625,0.28589602909756,0.0014023658411481,0.00021216819471832,0.0002765805715113,-0.00025938895197226,-1.2419378692995e-05,-0.00024098085273483,0.32013402873577,0.031116706408166,0.040770628810096,0.075237755268653,-0.0018101315722282,0.078176135127101
1.35546875,35.2421875,0.28641930626871,0.0014064816284498,0.00021296633766454,0.00027772297053647,-0.00026051183219452,-1.2535856945461e-05,-0.00024202237050775,0.32070771033288,0.031183848164266,0.04087123449387,0.075459082704956,-0.0018244674302064,0.078405605479615
1.359375,35.34375,0.28694164142787,0.0014106021861783,0.00021376882926427,0.00027886935249613,-0.00026163945964078,-1.2647595109024e-05,-0.00024306601406834,0.32128113532028,0.03125145099766,0.040972141800378,0.075679774072886,-0.0018379953103862,0.078634864653162
1.36328125,35.4453125,0.28746437903901,0.0014147200214163,0.00021457115077565,0.00028002037205693,-0.00026276941509779,-1.2755393333378e-05,-0.00024410944016634,0.32185340177278,0.031318910419739,0.041073634300182,0.075899566696583,-0.0018508565374099,0.078863643760547
1.3671875,35.546875,0.2879882956534,0.0014188456205761,0.0002153756981532,0.00028118158075811,-0.00026390844104014,-1.2865886601601e-05,-0.00024516937057349,0.32242328916267,0.031386372676883,0.041176329501856,0.076116485882648,-0.0018641120049988,0.079088324659951
1.37109375,35.6484375,0.28851094569026,0.0014229475780566,0.00021617379145625,0.00028234429872468,-0.00026504520843192,-1.2977109608005e-05,-0.00024623047227835,0.32298801491025,0.031452985864543,0.041279554323837,0.076330332364651,-0.0018774830863929,0.079309398831936
1.375,35.75,0.28903133312777,0.00142704111913,0.00021697194510128,0.00028350254610222,-0.00026617951880645,-1.3088300863333e-05,-0.00024728979924438,0.32355159900434,0.031519707201354,0.041382138502669,0.076543704185014,-0.0018908322536085,0.079529892377199
1.37890625,35.8515625,0.28954942423878,0.0014311099250857,0.00021776440302021,0.0002846557372241,-0.00026730730813779,-1.3198948830023e-05,-0.00024834247195917,0.32411176717747,0.031585837141288,0.041484322233997,0.076755726064006,-0.0019040965640958,0.079749082877619
1.3828125,35.953125,0.29006817383477,0.0014352117753767,0.00021857093426041,0.00028583273047201,-0.0002684465936515,-1.330455601685e-05,-0.00024939861885057,0.3246764676381,0.031653617378711,0.041589467386316,0.076969604472195,-0.0019164815005594,0.079971373398914
1.38671875,36.0546875,0.29058695862074,0.0014393049589859,0.00021937452926208,0.00028700965381792,-0.000269583841177,-1.3410038326038e-05,-0.00025045226399431,0.32523995665269,0.03172100409378,0.041694679330927,0.077182966167223,-0.0019288330611835,0.080193225432754
1.390625,36.15625,0.29110465966136,0.0014433980398616,0.00022017958861111,0.00028818489198465,-0.0002707209275638,-1.3515720354053e-05,-0.0002515062617511,0.32580344755345,0.031788595955609,0.041799524789918,0.077396295315466,-0.0019411931985482,0.080414953668119
1.39453125,36.2578125,0.29162066376501,0.0014474696778191,0.00022097948775606,0.00028935595707724,-0.00027185238982217,-1.362095780534e-05,-0.00025255450903371,0.32636397291677,0.031855632578666,0.041904042434111,0.077608444570742,-0.0019534834062086,0.080635541468167
1.3984375,36.359375,0.29213426447866,0.0014515316149647,0.00022177906682097,0.0002905223795505,-0.00027298100447368,-1.3726145323353e-05,-0.00025360066759991,0.32692317992619,0.031922734430598,0.042007917872669,0.07782006180157,-0.0019657533507975,0.080855478290097
1.40234375,36.4609375,0.29264669098273,0.0014555743298568,0.00022257351394411,0.0002916858275291,-0.00027410468554644,-1.38309261677e-05,-0.00025464155297212,0.32747972197536,0.03198925036007,0.04211161528729,0.078030609170189,-0.001977957654251,0.08107441680704
1.40625,36.5625,0.29315896128591,0.0014596248950139,0.00022337103295478,0.00029284965301444,-0.0002752303990642,-1.3936109300501e-05,-0.00025568488221991,0.32803736071865,0.032056112145603,0.042215117264844,0.078241536045372,-0.0019901945345699,0.081293650444135
1.41015625,36.6640625,0.29367068930528,0.0014636634465767,0.00022416532882806,0.00029401186466282,-0.00027635305663744,-1.4041094052778e-05,-0.00025672494714046,0.32859333201306,0.032122590019905,0.04231851275526,0.078451781467537,-0.0020023911045488,0.081512243988743
1.4140625,36.765625,0.29418119036198,0.0014676993308167,0.00022496033755648,0.0002951719240088,-0.00027747488298227,-1.4146195241827e-05,-0.0002577646539966,0.32914894940671,0.032189191619664,0.042421524314887,0.078661856412149,-0.0020145867386725,0.081730585946007
1.41796875,36.8671875,0.29469018131526,0.0014717149226213,0.00022575026119058,0.00029632831294994,-0.00027859139832844,-1.4250869874623e-05,-0.00025879890316481,0.32970175680613,0.032255234758428,0.042524272159483,0.078870815415596,-0.0020267155503258,0.081947853870509
1.421875,36.96875,0.29519743834495,0.0014757260993472,0.0002265410040405,0.00029748132678549,-0.00027970651408023,-1.4355628667408e-05,-0.00025983245382173,0.33025397570695,0.032321449689281,0.04262647796525,0.079079518372032,-0.0020388405408941,0.082164749929764
1.42578125,37.0703125,0.29570400908229,0.0014797225953481,0.00022732744998146,0.00029863272831737,-0.00028081793760694,-1.4460092781944e-05,-0.0002608619126674,0.33080415363565,0.032387146321686,0.042728636881888,0.079287393376052,-0.0020509138864385,0.082380894152041
1.4296875,37.171875,0.2962098718029,0.0014837209595429,0.00022811577584535,0.00029978282250674,-0.00028192972138459,-1.4564799023647e-05,-0.00026189227080293,0.33135460540032,0.03245308921269,0.042830456734299,0.079495339897367,-0.0020630016592872,0.082597012563878
1.43359375,37.2734375,0.2967152219486,0.0014877085544725,0.00022890098453028,0.00030093182839831,-0.00028303882204728,-1.4669325754394e-05,-0.00026291963834369,0.33190356019905,0.0325186476306,0.042932234480107,0.079702669151815,-0.0020750518811938,0.082812570041914
1.4375,37.375,0.29721868920455,0.0014917025198748,0.00022969162764165,0.00030208620463149,-0.0002841531426422,-1.4771601048225e-05,-0.00026394518859769,0.33245332552774,0.032584932179764,0.043034669706714,0.079909815750306,-0.0020867145438734,0.083029057755289
1.44140625,37.4765625,0.29772044126069,0.00149571186819,0.00023049120776656,0.00030325777943136,-0.00028527995170507,-1.4868572957589e-05,-0.00026496601891442,0.33300502021033,0.032652324953649,0.043139491895226,0.080116630002926,-0.0020974946703171,0.083247946011257
1.4453125,37.578125,0.29822103159504,0.0014997214456243,0.00023129249526109,0.00030442733221885,-0.00028640666390608,-1.4965734722073e-05,-0.00026598735187885,0.33355676480705,0.032719958896594,0.043243889783522,0.080323429323092,-0.0021082862543461,0.083466706535545
1.44921875,37.6796875,0.29872083432115,0.0015037184737563,0.00023209018860583,0.00030559649691158,-0.00028753025254488,-1.5062505855489e-05,-0.00026700477604022,0.33410680243154,0.032787149906268,0.043348390698543,0.080529569689659,-0.0021190124050697,0.083684936593703
1.453125,37.78125,0.29921753340151,0.0015077383688641,0.00023289628048244,0.00030677947313607,-0.00028866009701999,-1.515826782942e-05,-0.00026802375377769,0.3346604712155,0.032855268791051,0.043454534521868,0.080737488958041,-0.0021295316460201,0.083905661811299
1.45703125,37.8828125,0.29971344702252,0.0015117423086546,0.00023369775932773,0.00030796051220984,-0.00028978589227794,-1.5253697733242e-05,-0.00026903832911083,0.33521192108764,0.03292283491355,0.043560601103813,0.080944517312252,-0.0021399996451085,0.08412555741468
1.4609375,37.984375,0.30020837696462,0.0015157468054675,0.00023450105308341,0.00030913952735288,-0.00029091166930013,-1.5349326537579e-05,-0.00027005352470449,0.33576346521153,0.032990654970417,0.04366623404772,0.081151547314537,-0.0021504809258408,0.084345333491939
1.46484375,38.0859375,0.30070240414725,0.0015197362681736,0.00023530014840485,0.00031031648639757,-0.00029203361008018,-1.5444653220919e-05,-0.00027106461374731,0.33631292022099,0.03305797769329,0.043771753701419,0.081357736922224,-0.0021609149105693,0.084564316138466
1.46875,38.1875,0.30119576020222,0.0015237253889037,0.00023610030408077,0.00031149208357783,-0.00029315538958134,-1.5540130569264e-05,-0.00027207593420686,0.33686233921184,0.033125442579858,0.043876965791602,0.081563876293822,-0.0021713558666338,0.084783168679959
1.47265625,38.2890625,0.3016882597305,0.001527701737819,0.00023689724076881,0.00031266544344144,-0.00029427385933216,-1.5635381743737e-05,-0.00027308386654862,0.33740998740198,0.033192538201744,0.043981990162995,0.081769300103774,-0.0021817590991704,0.085001318761817
1.4765625,38.390625,0.30217989199938,0.0015316779936187,0.00023769533313632,0.0003138374064394,-0.00029539222881318,-1.5730790092808e-05,-0.00027409211185723,0.33795763424883,0.033259788572751,0.044086697665354,0.08197468597106,-0.0021921701996852,0.085219347577978
1.48046875,38.4921875,0.30267033951802,0.001535638619909,0.00023848965541091,0.00031500626252265,-0.00029650647824162,-1.5825902261048e-05,-0.00027509624468551,0.33850311729895,0.033326625744708,0.044191139876816,0.082179210397187,-0.0022025361579438,0.085436518219357
1.484375,38.59375,0.30316007919077,0.001539598252416,0.00023928467258788,0.00031617389871636,-0.00029762042558736,-1.5921136552285e-05,-0.00027610038573287,0.33904847181686,0.033393555708004,0.044295313828517,0.082383647953398,-0.0022129057344947,0.085653536805005
1.48828125,38.6953125,0.30365027839694,0.0015435962952537,0.00024010337279835,0.00031735042983212,-0.00029873305598317,-1.6012408522983e-05,-0.00027712523190871,0.33959929929323,0.033463855102226,0.044399982654483,0.082592183067879,-0.0022225635780709,0.085870971503836
1.4921875,38.796875,0.30413994085165,0.0015475989296244,0.00024092584135412,0.00031852601617937,-0.00029984523413049,-1.6103576817383e-05,-0.00027815320719652,0.34015079294809,0.033534678003535,0.044504307260867,0.08280118811912,-0.0022321824212055,0.086088275288937
1.49609375,38.8984375,0.30463083045296,0.0015515981351662,0.00024174533621572,0.00031969913403949,-0.00030095676339374,-1.6196170728155e-05,-0.00027918102671886,0.34070174304706,0.03360502469872,0.044608214979238,0.083009815437238,-0.0022420198978936,0.086305122668835
1.5,39,0.30512441319587,0.0015556143757418,0.00024256873937416,0.00032087397149173,-0.00030207302676041,-1.6290794894119e-05,-0.0002802153257793,0.34125478890024,0.033675682863776,0.04471191895121,0.083219077300026,-0.0022521443709757,0.086522295980839
1.50390625,39.1015625,0.30562045569113,0.0015596314942372,0.00024338855745706,0.00032204631198416,-0.00030318971963931,-1.6387648239653e-05,-0.00028125106933521,0.34180787357449,0.033745706313042,0.044815114045185,0.083428141160553,-0.0022626098466632,0.086739105527881
1.5078125,39.203125,0.30611901058188,0.0015636557145719,0.00024420666971212,0.00032321754380153,-0.00030430948196433,-1.6487599440636e-05,-0.00028228945449134,0.34236176058524,0.033815288922882,0.044917881780173,0.083637138288579,-0.0022735472655179,0.086955909637214
1.51171875,39.3046875,0.3066205921779,0.0015676909883623,0.00024502365452653,0.00032439030741253,-0.00030543468076761,-1.6591582138285e-05,-0.000283331189525,0.34291679037189,0.033884435770444,0.045020541308609,0.083845996386335,-0.0022851001462591,0.08717290022837
1.515625,39.40625,0.30712300461217,0.0015717239179673,0.00024583797855983,0.00032556088948264,-0.00030655930536712,-1.6696424990941e-05,-0.00028437276956771,0.34347151381245,0.033953154001676,0.045122820802146,0.084054617951186,-0.0022967753608154,0.087389585828403
1.51953125,39.5078125,0.30762424412941,0.0015757478226486,0.00024665071557737,0.00032672899405321,-0.00030768149260912,-1.6801151718618e-05,-0.00028541212669893,0.34402499553786,0.034021713945382,0.045224807408943,0.084262729512355,-0.0023084240763257,0.08760573170355
1.5234375,39.609375,0.30812522827303,0.0015797672521661,0.00024746213202162,0.00032789515599236,-0.00030880253798513,-1.6906030591031e-05,-0.000286450476912,0.34457787991124,0.034090092692658,0.04532649717175,0.084470540018057,-0.0023200840128044,0.08782155463693
1.52734375,39.7109375,0.30862689822043,0.0015837839827202,0.00024826996584913,0.00032905980846307,-0.00030992261629067,-1.7011570328279e-05,-0.00028748860585721,0.34513044275728,0.034157897708325,0.045427927118485,0.084678174164768,-0.0023318348869596,0.088037082378394
1.53125,39.8125,0.30912984452832,0.001587800801512,0.00024907344827619,0.00033022383310267,-0.0003110447502248,-1.711850772682e-05,-0.00028852667616381,0.34568280141705,0.034224935021274,0.045529165455583,0.084885237675833,-0.0023437913037105,0.088252382846921
1.53515625,39.9140625,0.30963641867885,0.0015918280094991,0.00024986980162403,0.00033139115303362,-0.00031217350634887,-1.7228239561594e-05,-0.00028956726056516,0.34623614681541,0.034290569758756,0.045630612546929,0.085091807420843,-0.0023561639075438,0.08846784812092
1.5390625,40.015625,0.31014236132754,0.0015958524552787,0.00025066513719111,0.00033255749985857,-0.00031330177653664,-1.733797880999e-05,-0.00029060698965914,0.34678622654056,0.034355299886951,0.045731172605791,0.0852996442275,-0.0023685215200774,0.088684566000472
1.54296875,40.1171875,0.3106480498168,0.0015999173331641,0.00025147853627535,0.00033374179826746,-0.00031443861523109,-1.7444161435749e-05,-0.0002916545828569,0.34731485779041,0.034415177143479,0.045826921827319,0.085524822656915,-0.0023802400779352,0.088917990467641
1.546875,40.21875,0.31115324500806,0.0016039756081237,0.00025228986676614,0.00033492419844874,-0.00031557349943332,-1.7550366403424e-05,-0.00029270080146479,0.34784265082472,0.034474798356278,0.045922430120275,0.08574960699374,-0.002391950842272,0.089150928475002
1.55078125,40.3203125,0.31165798953527,0.0016080271815052,0.00025309958563272,0.00033610539886469,-0.00031670665946484,-1.7656510160516e-05,-0.00029374531211368,0.34836956703274,0.034534231234708,0.046017807893986,0.085973972302877,-0.0024036407137161,0.089383445875903
1.5546875,40.421875,0.31216302294086,0.0016120792013974,0.0002539084219951,0.00033728628293341,-0.00031783975399248,-1.7762889671281e-05,-0.00029479043572129,0.34889656786929,0.034593481900418,0.046113038283813,0.086198328142993,-0.0024153478135978,0.08961583512164
1.55859375,40.5234375,0.31266940802027,0.0016161265142722,0.00025470989163002,0.00033847074502803,-0.00031897100592188,-1.7868855987992e-05,-0.00029583510645291,0.34942294250862,0.034651566828563,0.046208864026301,0.086422473570152,-0.0024269751437467,0.089847794917347
1.5625,40.625,0.31317616603435,0.0016201751885461,0.00025550845164353,0.00033965658050655,-0.00032010218322922,-1.7974825857369e-05,-0.00029688108408808,0.34994949513935,0.034709124537304,0.046304791552329,0.086646678934346,-0.0024385812060201,0.090079584571399
1.56640625,40.7265625,0.313682341161,0.0016242049845772,0.000256299024569,0.00034084119623877,-0.00032122822312686,-1.8080209680926e-05,-0.00029792238652599,0.35047353504151,0.034765671091765,0.046400867843449,0.086869786263753,-0.0024500990042312,0.090310225530014
1.5703125,40.828125,0.31418785815467,0.001628232173649,0.00025708784592772,0.00034202359500806,-0.00032235301508815,-1.8185755055763e-05,-0.00029896397988615,0.35099727942568,0.034821967929595,0.046496566435181,0.087092733934516,-0.0024616265345427,0.090540455444027
1.57421875,40.9296875,0.31469215773405,0.0016322396025289,0.00025787056487675,0.00034320223241684,-0.00032347249410286,-1.8290908647339e-05,-0.00030000048446227,0.35151843947675,0.034877589687072,0.04659203242743,0.087314523356576,-0.002473098783441,0.090769514747665
1.578125,41.03125,0.31519717845921,0.001636252025211,0.00025865022283864,0.0003443825370946,-0.00032459617721535,-1.8395039920868e-05,-0.00030103807601732,0.35203995807031,0.03493257920426,0.046687555743427,0.087535807688783,-0.0024843796576776,0.090998564529533
1.58203125,41.1328125,0.31570342528946,0.0016402691708844,0.00025942326652709,0.00034556707652979,-0.0003257285684223,-1.8496756342659e-05,-0.00030207503494052,0.35256132864892,0.03498631604827,0.046783531695455,0.087755532720933,-0.0024952446998736,0.091227561578969
1.5859375,41.234375,0.316209882052,0.0016442883042684,0.00026019658455357,0.00034675162464572,-0.00032686132705968,-1.8598696328501e-05,-0.00030311303618891,0.35308296385455,0.035040043046147,0.046879371193978,0.087975339133469,-0.0025061246674786,0.09145651604737
1.58984375,41.3359375,0.31671548133803,0.0016482949629959,0.00026096617845663,0.00034793412664182,-0.00032799083773383,-1.8700384009241e-05,-0.00030414764180639,0.35360297808615,0.035093355921244,0.046975085280449,0.088194409419307,-0.0025169638887414,0.091684766308791
1.59375,41.4375,0.31721972957848,0.0016522975299716,0.0002617359770437,0.00034911394316244,-0.00032911906268658,-1.8802090887212e-05,-0.00030518159946083,0.35412248071125,0.035146756864726,0.047070375479273,0.088413223201242,-0.0025277939125708,0.091912651695195
1.59765625,41.5390625,0.31772292607531,0.0016562848207944,0.00026250170753443,0.00035029055010457,-0.00033024317565474,-1.890349179097e-05,-0.00030621160720921,0.35463999028606,0.035199740984703,0.047165419763016,0.088631146608667,-0.0025385784277426,0.092139633018782
1.6015625,41.640625,0.3182238957918,0.0016602601185801,0.00026326577344387,0.00035146246888281,-0.00033136384021053,-1.9004675146153e-05,-0.00030723881249778,0.35515596653099,0.035252651075792,0.047259908528163,0.08884837793566,-0.0025493271850809,0.092365825116051
1.60546875,41.7421875,0.3187243645279,0.0016642234811345,0.00026402640872425,0.00035263292933751,-0.00033248148333879,-1.9105599515585e-05,-0.00030826277554087,0.35567035893143,0.035305180498984,0.047354351969708,0.089064890553201,-0.0025600337927039,0.092591342199135
1.609375,41.84375,0.31922597446337,0.0016682093198276,0.00026479705774558,0.0003538088509997,-0.00033360665200037,-1.9206154483493e-05,-0.00030929368914042,0.3561872608019,0.035358854323941,0.047449001653046,0.089282223218899,-0.0025706289087803,0.092817729789751
1.61328125,41.9453125,0.31972859269557,0.0016721984995898,0.00026557075987816,0.00035499091308762,-0.00033473371447973,-1.9305393244969e-05,-0.00031032545565769,0.35670427669702,0.035412865129157,0.047544410534377,0.089499577867491,-0.002580987657163,0.093044293398012
1.6171875,42.046875,0.32023093478798,0.0016762120440257,0.00026635903404366,0.00035617600495071,-0.00033586208112193,-1.9402408558662e-05,-0.00031136610644093,0.35722492310708,0.035468864465828,0.047639630330618,0.089719487654665,-0.0025909333572814,0.093272113881226
1.62109375,42.1484375,0.32073332491458,0.0016802401930822,0.00026715792526393,0.00035736393257982,-0.00033698947438309,-1.9497014975119e-05,-0.00031241265779689,0.35774788905154,0.03552636638081,0.047734857755302,0.089941360601348,-0.0026004513318391,0.093500732320788
1.625,42.25,0.32123424231543,0.0016842641803896,0.00026795726296854,0.00035854913572548,-0.00033811555469603,-1.9591607280819e-05,-0.00031345851217683,0.35827033690337,0.035583986688564,0.047829659392295,0.090162977551832,-0.0026099584890627,0.093728995141079
1.62890625,42.3515625,0.32173362925216,0.0016882675579219,0.0002687511775917,0.00035973064731688,-0.00033923620173629,-1.9685742904824e-05,-0.00031449877895631,0.35879008246958,0.035641048064081,0.047924266281434,0.090383402777126,-0.0026194076402565,0.093956117798688
1.6328125,42.453125,0.32223327858001,0.0016922837618045,0.00026955643328593,0.000360914931797,-0.00034035929860756,-1.9778071023646e-05,-0.000315544561117,0.35931121382191,0.035699615676264,0.048018855743262,0.090604668784721,-0.0026285285962335,0.09418356598531
1.63671875,42.5546875,0.32273254412477,0.0016962894380817,0.00027035917323004,0.00036209950868246,-0.00034147986425231,-1.9869946532612e-05,-0.00031658729219018,0.35983090141738,0.035757899913849,0.048113637965067,0.090825310966253,-0.0026375782115673,0.094410485476954
1.640625,42.65625,0.32323260757536,0.0017003163559762,0.00027117257106316,0.00036328964237985,-0.00034260697728973,-1.9962650071746e-05,-0.00031763568968279,0.36035315271572,0.035817453199004,0.048208674546505,0.0910469898188,-0.002646715609519,0.094638544192413
1.64453125,42.7578125,0.3237331391167,0.0017043398430048,0.00027198841815692,0.00036447879346282,-0.00034373493613358,-2.0057305456575e-05,-0.00031868241927571,0.36087475987253,0.035877379060637,0.048303523371639,0.091268101350752,-0.0026561593739447,0.094866444764372
1.6484375,42.859375,0.32423805078555,0.0017083723275734,0.00027280915264258,0.00036566925589746,-0.00034486509698629,-2.0151669248778e-05,-0.0003197312953824,0.36139762715502,0.03593789658263,0.048398283595233,0.091489810387224,-0.0026655299072932,0.095094928440249
1.65234375,42.9609375,0.32474688380212,0.0017124203649103,0.00027364106282619,0.00036687738058689,-0.00034599939054119,-2.0240992974787e-05,-0.00032077743763315,0.36192301925918,0.03599980267168,0.048495418166529,0.091713443199635,-0.0026740623344709,0.095326394327564
1.65625,43.0625,0.32525464100088,0.0017164681245031,0.00027447461174986,0.00036808338126081,-0.00034713341743661,-2.0330413883566e-05,-0.00032182397425902,0.36244840229981,0.036061943611087,0.048592128332752,0.091937031832149,-0.0026825987471615,0.095557700591949
1.66015625,43.1640625,0.32576178056348,0.0017205009522852,0.00027530370467535,0.00036928749626588,-0.00034826364624127,-2.0419535038958e-05,-0.00032286633851393,0.36297182273795,0.036123572062505,0.048688798470755,0.092159736439479,-0.0026910971761678,0.095788198775828
1.6640625,43.265625,0.32626752298157,0.0017245339918526,0.00027613486878756,0.00037048912361412,-0.0003493936744176,-2.0508772311961e-05,-0.00032390932078714,0.36349530279949,0.036185500133317,0.048784975919346,0.092382428102719,-0.0026996019601666,0.09601854233791
1.66796875,43.3671875,0.32677296288901,0.0017285643750492,0.00027697124470863,0.00037169550566009,-0.00035052217872847,-2.0594329116728e-05,-0.0003249518656573,0.3640182593541,0.036248179341392,0.048881804464087,0.092605285090773,-0.0027075010817018,0.096248879153445
1.671875,43.46875,0.32727757935366,0.0017326081948559,0.00027781490374804,0.00037290668430505,-0.00035165421067423,-2.0679330152143e-05,-0.0003259969797142,0.36454305273694,0.036311719307126,0.048978969417581,0.092829087508004,-0.002715280657792,0.096480287100473
1.67578125,43.5703125,0.32778077311031,0.0017366474996923,0.00027865903220287,0.00037412299146093,-0.00035278553789887,-2.0763596154076e-05,-0.00032703833861551,0.36506737069253,0.036375310105381,0.04907695426609,0.093052867567376,-0.0027229403250702,0.096712163908508
1.6796875,43.671875,0.32828385342379,0.0017406991016815,0.00027951569624878,0.00037534058005819,-0.00035391854500719,-2.0851413407652e-05,-0.00032808401845298,0.36559328161067,0.036440617149343,0.049174720853895,0.093277731423125,-0.0027311450615838,0.0969446695324
1.68359375,43.7734375,0.32878682805899,0.0017447417911908,0.00028037437543415,0.00037655815036959,-0.00035504844662459,-2.094114038941e-05,-0.00032912746047722,0.36611798969485,0.036506308958136,0.049272578210392,0.093502326387894,-0.002739660725713,0.097176773063963
1.6875,43.875,0.32928897850788,0.0017487888678621,0.000281236008817,0.00037777452211094,-0.00035617932748729,-2.1031097021759e-05,-0.0003301725957176,0.36664329911441,0.036572358418911,0.04937004691117,0.093727136131671,-0.0027481950216489,0.097408960698932
1.69140625,43.9765625,0.32979007506529,0.0017528167613652,0.00028209203989228,0.00037898807388786,-0.00035730526114811,-2.1120640735428e-05,-0.00033121240250849,0.36716609123426,0.036637778497401,0.049467429745674,0.093950823794141,-0.0027566799139273,0.097640111268603
1.6953125,44.078125,0.33029085092593,0.0017568588633247,0.000282955511653,0.00038020554727632,-0.00035843513524192,-2.1210376186661e-05,-0.00033225622928575,0.36769063734306,0.036704074177832,0.049564978637348,0.094175297817029,-0.0027651619501212,0.097872001708323
1.69921875,44.1796875,0.33079111947317,0.0017608928704645,0.00028381822008037,0.00038142575495271,-0.00035956339906355,-2.1299681042174e-05,-0.00033329735680714,0.36821398000036,0.036770290568255,0.049663034148622,0.094399290518733,-0.00277357466123,0.098103589642645
1.703125,44.28125,0.33129031640206,0.0017649290684377,0.0002846833454142,0.00038264421421802,-0.0003606920303738,-2.138916640321e-05,-0.00033433960008103,0.36873763861456,0.036836816054103,0.04976066539407,0.094623377439587,-0.002782001691235,0.098335138886861
1.70703125,44.3828125,0.33178888918988,0.001768950666998,0.00028554415413213,0.00038386071966327,-0.00036181693735562,-2.1478352495346e-05,-0.00033537777538085,0.36925938136649,0.036902839626386,0.04985824115,0.094846599694005,-0.0027903913645487,0.098565894926816
1.7109375,44.484375,0.33228655389305,0.0017730002967369,0.00028642171038134,0.00038508866378185,-0.000362943126452,-2.1562684527072e-05,-0.00033642952608084,0.36978453948829,0.036971026630686,0.049956834640711,0.095072611625896,-0.0027979447734158,0.098797362092923
1.71484375,44.5859375,0.33278369808871,0.0017770488156347,0.00028730192116914,0.0003863204491162,-0.00036406662769776,-2.164465429425e-05,-0.00033748323844774,0.37030943062315,0.037039595889476,0.050055953924393,0.09529904067582,-0.00280511001986,0.099028477182868
1.71875,44.6875,0.33328007808909,0.0017810995288957,0.00028818427370288,0.00038755096774724,-0.0003651905379041,-2.1726769524761e-05,-0.00033853801056153,0.37083463236597,0.037108421895127,0.050154723440835,0.095525560405234,-0.0028122870778245,0.099259571954588
1.72265625,44.7890625,0.33377575683654,0.0017851334405247,0.00028906135361742,0.00038877952015657,-0.00036631021807427,-2.1808538678723e-05,-0.00033958800780104,0.37135762604655,0.037176623640487,0.050253487695041,0.095751080547363,-0.0028194258345315,0.09948978109701
1.7265625,44.890625,0.33427085253015,0.001789174575729,0.00028994219100752,0.00039000752213207,-0.00036743160212532,-2.1890572063145e-05,-0.0003406405113664,0.37188159193123,0.037245256959615,0.05035189649502,0.095976977498756,-0.0028265879788753,0.099720223244559
1.73046875,44.9921875,0.33476525496676,0.0017931985903404,0.00029081772345846,0.00039123339348927,-0.00036854865868088,-2.1972253111932e-05,-0.00034168816736716,0.37240330880097,0.03731326800955,0.050450283340312,0.096201857983057,-0.0028337114013649,0.099949759469477
1.734375,45.09375,0.33525868311255,0.0017972246456559,0.0002916954924885,0.00039245773920075,-0.00036966605456206,-2.2054079915051e-05,-0.00034273687450606,0.37292531934433,0.037381556594586,0.05054828495301,0.096426822606674,-0.0028408470259136,0.10017925925757
1.73828125,45.1953125,0.33575174951845,0.001801239291128,0.00029256978169945,0.00039368077912056,-0.00037078059414268,-2.2135688734661e-05,-0.00034378237564972,0.37344583166117,0.037449419862318,0.050646260405104,0.096651095796747,-0.0028479570167766,0.10040814124326
1.7421875,45.296875,0.3362441527485,0.0018052570568105,0.00029344635421927,0.0003949029094803,-0.00037189580756784,-2.221745897201e-05,-0.00034482915708728,0.37396677474206,0.037517547251242,0.050743923679531,0.096875512289504,-0.002855080188836,0.10063706135002
1.74609375,45.3984375,0.3367357521364,0.0018092575446269,0.0002943176600438,0.0003961227157974,-0.00037300663061296,-2.2298874909076e-05,-0.00034587106926583,0.37448545000353,0.037585064578497,0.050841541699898,0.097098905790858,-0.0028621648053275,0.10086506269835
1.75,45.5,0.33722637508604,0.0018132615648463,0.00029519180968357,0.00039734099764137,-0.0003741181492984,-2.2380475556418e-05,-0.0003469144973273,0.37500461783068,0.037652934111229,0.050938740817165,0.097322469982441,-0.0028692657170474,0.10109309425271
1.75390625,45.6015625,0.33771665684383,0.001817252231771,0.00029606158934299,0.00039855808259181,-0.00037522635742925,-2.2461802389272e-05,-0.00034795408667706,0.37552202754318,0.037720267908528,0.051035981133358,0.097545231740998,-0.0028763352305755,0.10132042923976
1.7578125,45.703125,0.33820623365693,0.0018212451123842,0.00029693329007243,0.00039977421841783,-0.0003763350168725,-2.2543266063444e-05,-0.00034899467713913,0.37603974793324,0.037787823882131,0.051132926685483,0.097768085222801,-0.0028834154876578,0.10154776148957
1.76171875,45.8046875,0.33869522780939,0.0018252279375859,0.00029780235392965,0.00040098858234176,-0.00037744108340457,-2.2624555326909e-05,-0.00035003256151934,0.37655615557319,0.037855073830695,0.051229743808045,0.097990329903317,-0.0028904752866426,0.10177451817102
1.765625,45.90625,0.33918387596069,0.0018292126863297,0.00029867281012029,0.00040220262455237,-0.00037854760932502,-2.2705960058118e-05,-0.00035107124486426,0.37707282844925,0.03792246198852,0.051326373982852,0.098212646481666,-0.0028975429498918,0.10200128694279
1.76953125,46.0078125,0.33967150778125,0.0018331815763311,0.00029953882883687,0.00040341394090741,-0.00037965003113793,-2.2787054123882e-05,-0.00035210556614668,0.37758742686268,0.037989356128256,0.051422865902183,0.098434026614805,-0.0029045772113376,0.1022271855219
1.7734375,46.109375,0.34015868466801,0.0018371565599426,0.00030040798470163,0.00040462490792303,-0.0003807539080102,-2.2868375526702e-05,-0.00035314199830073,0.37810284603418,0.038056601945087,0.051519066380773,0.098655718826095,-0.0029116309323707,0.10245327829633
1.77734375,46.2109375,0.34064518976733,0.001841117864886,0.00030127293520311,0.00040583417562338,-0.00038185433215684,-2.2949422136927e-05,-0.00035417457066915,0.37861646921976,0.038123349764237,0.051615240723113,0.098876594443081,-0.0029186538616768,0.10267864141864
1.78125,46.3125,0.34113107063195,0.0018450779325039,0.0003021385618628,0.00040704219168515,-0.00038295433981032,-2.3030518034665e-05,-0.00035520710889514,0.37912994772692,0.038190179456216,0.05171115871651,0.099097366646203,-0.0029256789391277,0.10290383962105
1.78515625,46.4140625,0.34161652789103,0.0018490310546155,0.00030300243786458,0.00040824904449225,-0.00038405257197846,-2.311150796924e-05,-0.00035623780517962,0.37964252076545,0.038256793591767,0.051806973600706,0.099317707627104,-0.0029326900894743,0.10312862727256
1.7890625,46.515625,0.34210123056641,0.0018529838961298,0.00030386741524419,0.00040945458196332,-0.00038515061157255,-2.3192573384039e-05,-0.00035726877754387,0.38015507703166,0.038323543189367,0.051902499956073,0.0995379998986,-0.0029397061597233,0.10335328925178
1.79296875,46.6171875,0.34258539871578,0.0018569249574314,0.00030472875360022,0.00041065873377257,-0.00038624569226062,-2.3273406654159e-05,-0.00035829642768551,0.38066608629459,0.038389854768659,0.051998006867957,0.099757583760289,-0.0029466955942328,0.10357731962489
1.796875,46.71875,0.343069065649,0.0018608691173804,0.00030559235730417,0.0004118622268256,-0.00038734136450116,-2.3354422304103e-05,-0.00035932530422123,0.38117753367159,0.038456431207092,0.052093247964029,0.099977339615334,-0.0029537020115269,0.10380141225853
1.80078125,46.8203125,0.34355264621347,0.0018648244038141,0.00030646685766193,0.00041306953820038,-0.00038843533397667,-2.3437137513118e-05,-0.0003603573444267,0.3816909909248,0.038524546719995,0.05218873368331,0.10019903844594,-0.0029609579138238,0.10402662646991
1.8046875,46.921875,0.34403528094095,0.0018687807708982,0.00030734330655496,0.00041427515963605,-0.00038952937083759,-2.3519977597422e-05,-0.00036139015826276,0.38220461874761,0.038592910833509,0.05228383932056,0.10042077267611,-0.0029682240813226,0.10425176052018
1.80859375,47.0234375,0.344517226787,0.0018727204659,0.00030821447659288,0.00041547871597191,-0.00039061922561146,-2.3602457915196e-05,-0.00036241822833663,0.38271605131651,0.038660654495152,0.052378939392407,0.10064151150372,-0.0029754503529869,0.10447601845451
1.8125,47.125,0.34499869652407,0.0018766676597347,0.00030908935051107,0.00041668202016583,-0.00039171085388692,-2.3685208686243e-05,-0.00036344883751954,0.38322849418771,0.038728815292874,0.052473731952469,0.10086264945406,-0.0029827004694405,0.10470053973053
1.81640625,47.2265625,0.34547969263057,0.0018806009644119,0.00030995983481025,0.00041788369078192,-0.0003927990120013,-2.3767666847836e-05,-0.00036447550061442,0.38373910829458,0.038796451150763,0.052568520968626,0.10108295223704,-0.0029899172768478,0.10492432666135
1.8203125,47.328125,0.34596039372057,0.0018845433561067,0.00031083251653213,0.00041908494175895,-0.00039388965157706,-2.3851250490125e-05,-0.00036550520715567,0.38425094451989,0.038864240231744,0.05266294797883,0.10130363044264,-0.0029972935776245,0.10514838615878
1.82421875,47.4296875,0.34644085224616,0.0018884747849889,0.00031170120350632,0.00042028508921603,-0.00039497765668285,-2.3934782096796e-05,-0.000366531788705,0.38476133574602,0.038931518366747,0.052757387802605,0.10152361582573,-0.0030046706210051,0.10537185171879
1.828125,47.53125,0.34692089120131,0.0018924121781891,0.00031257288616275,0.0004214850816275,-0.00039606708370327,-2.4018538596826e-05,-0.00036756040710703,0.38527253149764,0.038999125391709,0.052851574550549,0.10174391103579,-0.0030120662551566,0.10559551834046
1.83203125,47.6328125,0.3474009593648,0.0018963402543126,0.00031344106732796,0.0004226844866895,-0.00039715432031903,-2.4102193851033e-05,-0.00036858633138212,0.38578249388458,0.039066270942398,0.052945816059574,0.10196361030826,-0.0030194521172177,0.10581868717815
1.8359375,47.734375,0.34788003985282,0.0019002716733029,0.00031430993537295,0.00042388144601011,-0.00039824255048281,-2.4186774052234e-05,-0.00036961386336276,0.38629292145501,0.03913343594679,0.053039515961481,0.1021833223391,-0.0030269735170616,0.10604176742097
1.83984375,47.8359375,0.3483585970937,0.0019041893881514,0.00031517430982256,0.00042507692138456,-0.00039932738200952,-2.4271083334562e-05,-0.00037063747401318,0.38680154271345,0.039200059169361,0.053133236684853,0.10240220760597,-0.003034464433224,0.10626412904816
1.84375,47.9375,0.34883697082813,0.0019081132617411,0.00031603915721879,0.00042627165341515,-0.00040041409228834,-2.4356584429124e-05,-0.00037166326786473,0.38731099262245,0.039266612375805,0.053226621031935,0.10262125686585,-0.0030421295707162,0.1064865988454
1.84765625,48.0390625,0.34931493207919,0.0019120317859075,0.00031690269902387,0.00042746561997713,-0.00040149958726362,-2.4442117108619e-05,-0.00037268754285257,0.38781973862569,0.039332993315796,0.053319933958356,0.10283994191662,-0.0030497993004414,0.10670876374812
1.8515625,48.140625,0.34979287408099,0.0019159543051914,0.00031776782509248,0.00042866048664975,-0.00040258639686318,-2.452799340917e-05,-0.0003737128705304,0.38832900463604,0.039399500120255,0.053413208776151,0.1030587754866,-0.0030575090511321,0.10693111472122
1.85546875,48.2421875,0.35027110285793,0.0019198754158528,0.00031863087644549,0.00042985492354766,-0.00040367322296358,-2.4614387046853e-05,-0.00037473793416283,0.38883808521374,0.039465649360536,0.053506380218919,0.1032773717584,-0.0030652957650937,0.1071532788592
1.859375,48.34375,0.35075132411925,0.0019238100657017,0.00031949522072094,0.00043105128312179,-0.00040476432914123,-2.4702143651717e-05,-0.00037576686275522,0.38934894015575,0.03953172047719,0.053599458042935,0.10349647191103,-0.0030732718734224,0.10737599668098
1.86328125,48.4453125,0.35123206912686,0.001927744573609,0.00032035872271352,0.00043224914316527,-0.00040585619541962,-2.479014475713e-05,-0.00037679544863081,0.38985970569157,0.039597591912935,0.05369269697474,0.10371538012743,-0.0030812782031842,0.10759870219923
1.8671875,48.546875,0.35171428803995,0.0019316969625216,0.00032122357543888,0.00043344980678858,-0.00040695432904383,-2.4879443968065e-05,-0.00037782914623871,0.39037270676099,0.039663314446226,0.053785876405091,0.10393479609531,-0.0030894562082816,0.10782207794419
1.87109375,48.6484375,0.35219727072761,0.0019356466220365,0.00032208489448029,0.00043465198692446,-0.00040805368038955,-2.496939077857e-05,-0.00037886160926355,0.39088515435069,0.039728444779676,0.053879285825553,0.1041535754269,-0.0030977332022755,0.10804521972368
1.875,48.75,0.35267958851533,0.0019395998727531,0.00032294869501236,0.00043585321020192,-0.00040915379723975,-2.5059513493325e-05,-0.00037989549663698,0.39139809870776,0.039793871669036,0.053972376974049,0.10437253114168,-0.0031060225709721,0.10826842406068
1.87890625,48.8515625,0.35316109896731,0.0019435404576352,0.00032380888539505,0.0004370523855867,-0.00041025065539267,-2.5149372037022e-05,-0.00038092588490659,0.391909383535,0.039858892258693,0.054065379275792,0.10459073639913,-0.0031142794700851,0.10849093666725
1.8828125,48.953125,0.35364275381721,0.0019474778483303,0.00032466757639801,0.00043824960526324,-0.00041134673720785,-2.5239442126258e-05,-0.0003819557439044,0.39242027680669,0.039923693047908,0.054158082969439,0.10480865886373,-0.0031225657966623,0.10871313211903
1.88671875,49.0546875,0.35412504968795,0.0019514123737464,0.00032552133460349,0.00043944589554041,-0.00041244252154811,-2.5329964501081e-05,-0.00038298532091357,0.39293078319102,0.03998771699759,0.054250653494698,0.1050261719967,-0.0031309198680188,0.10893492373673
1.890625,49.15625,0.35460768591131,0.0019553449903491,0.00032637377934014,0.00044064162239586,-0.00041353783784118,-2.5420598133108e-05,-0.00038401459867916,0.3934410575569,0.040051523093726,0.054343112859106,0.10524351363363,-0.0031392848854874,0.10915651956955
1.89453125,49.2578125,0.35509073860505,0.001959275887594,0.00032722534733236,0.00044183723052841,-0.0004146326470006,-2.5511007280305e-05,-0.00038504337708273,0.39395115457357,0.040115176068524,0.054435526634315,0.10546075637114,-0.0031476065488154,0.10937801739841
1.8984375,49.359375,0.3555738131795,0.0019632340771276,0.00032809231713668,0.00044305095309093,-0.00041573371002269,-2.5594475954032e-05,-0.00038607503123504,0.39446515257114,0.040180676823277,0.054530016487497,0.10568057372545,-0.0031547560608422,0.10960257503508
1.90234375,49.4609375,0.35605680676987,0.0019671909408974,0.00032895848577045,0.00044426497816558,-0.00041683514205066,-2.5677966103369e-05,-0.00038710630244862,0.39497889692554,0.040246016443761,0.054624506270153,0.10590011268064,-0.0031619035310707,0.10982697600282
1.90625,49.5625,0.35654070468151,0.0019711556539403,0.00032982540957012,0.0004454805432136,-0.00041794018513689,-2.5761797576211e-05,-0.00038813966640074,0.39549352211897,0.040311282745773,0.054718969418798,0.10611965882924,-0.0031690859678343,0.1100516153132
1.91015625,49.6640625,0.35702698260578,0.0019751219086328,0.00033068473752983,0.00044669913129862,-0.00041904744144504,-2.5845689125616e-05,-0.0003891738184668,0.39600814521647,0.040375246379386,0.054813815436496,0.10633870796726,-0.0031762682542111,0.11027598739474
1.9140625,49.765625,0.35751330027408,0.0019790885439687,0.00033154339631696,0.00044791748719646,-0.00042015503014005,-2.5929562456902e-05,-0.00039020837792755,0.39652280261181,0.040439054988076,0.054908540997224,0.1065576531742,-0.0031834394933257,0.11050024056205
1.91796875,49.8671875,0.3579990773336,0.0019830437377091,0.00033239873127745,0.00044913373287138,-0.00042125959933601,-2.6013221287264e-05,-0.00039123989014327,0.39703596779771,0.040502491344467,0.055003138822534,0.1067759234809,-0.0031905870803326,0.11072383904206
1.921875,49.96875,0.35848460401507,0.0019870005968595,0.00033325523955455,0.00045034897884886,-0.00042236441986299,-2.6097003596725e-05,-0.00039227232973391,0.39754937734994,0.040566054253189,0.055097460435575,0.10699425699036,-0.003197744271967,0.11094738547257
1.92578125,50.0703125,0.35896987437191,0.0019909482685015,0.00033410704056078,0.00045156399039759,-0.00042346734279994,-2.6180409552275e-05,-0.00039330221854748,0.39806152707209,0.040628972653782,0.05519190009106,0.10721191679584,-0.0032048483711931,0.11117037738798
1.9296875,50.171875,0.35945485040841,0.0019949243696946,0.00033497567410611,0.00045279217181062,-0.00042457241451423,-2.6259221998457e-05,-0.00039433951950145,0.39857791863759,0.040694045773547,0.05528763654191,0.1074328737735,-0.0032111607282205,0.11139573632037
1.93359375,50.2734375,0.3599410373682,0.0019988943493896,0.00033584017125925,0.00045402036206426,-0.00042567545399097,-2.6337771593769e-05,-0.00039537563811728,0.39909354229412,0.040758526438786,0.055383457251432,0.10765351609068,-0.0032174351725167,0.1116206516879
1.9375,50.375,0.36042747120414,0.0020028660944533,0.00033670546951761,0.00045524938085275,-0.00042677911015724,-2.6415995370724e-05,-0.00039641198811482,0.39960943173957,0.040823056586704,0.055479284732721,0.10787423721705,-0.003223648869538,0.11184570403855
1.94140625,50.4765625,0.36091365840695,0.0020068444535476,0.00033757450451018,0.0004564890941977,-0.00042788606939472,-2.6491586177904e-05,-0.00039744632036198,0.4001262317805,0.040887943747273,0.055576524532458,0.10809547986164,-0.0032294215381229,0.11207212184806
1.9453125,50.578125,0.36140019226284,0.0020108276069457,0.00033844521754527,0.00045772889334216,-0.00042899415300762,-2.6567342412764e-05,-0.00039848240409532,0.40064368289632,0.040952976975517,0.05567357747132,0.10831695660102,-0.0032352087766081,0.1122986616701
1.94921875,50.6796875,0.3618862034524,0.0020147971559755,0.00033931159634698,0.00045896694784024,-0.00043009878260462,-2.6642807621261e-05,-0.00039951464609147,0.40115934765501,0.041017507286777,0.055770611895278,0.10853762916556,-0.0032409670334921,0.11252448000111
1.953125,50.78125,0.362371889463,0.0020187705980546,0.00034018021311659,0.0004602038857994,-0.00043120420621892,-2.6718369243022e-05,-0.00040054847230447,0.4016755622151,0.041082297026629,0.055867292615893,0.10875849305917,-0.0032467303030612,0.11275035247959
1.95703125,50.8828125,0.36285781872726,0.0020227323985836,0.0003410442135365,0.00046143977046609,-0.00043230661921284,-2.679373057114e-05,-0.00040157917402886,0.40219024300416,0.041146506605273,0.055964018428165,0.10897866075161,-0.0032524759242452,0.11297556404874
1.9609375,50.984375,0.36334372470655,0.0020266948738497,0.00034190879499595,0.00046267527167883,-0.00043340910496156,-2.6869168351452e-05,-0.00040261039245554,0.40270502662432,0.041210758278509,0.056060585172102,0.10919883714293,-0.0032582284560852,0.11320070885988
1.96484375,51.0859375,0.36382935780439,0.0020306495777388,0.00034277128938534,0.00046390880708167,-0.0004345095402059,-2.6944475175651e-05,-0.0004036397143664,0.40321879632455,0.041274775847401,0.056156954881544,0.10941852381704,-0.0032639682074005,0.11342534952081
1.96875,51.1875,0.36431527805608,0.0020346175093253,0.00034363450809708,0.00046514352999121,-0.00043561871970168,-2.7019202286398e-05,-0.0004046713562435,0.40373386090936,0.04133861711641,0.056253097798632,0.1096376236553,-0.0032695877656858,0.1136504179599
1.97265625,51.2890625,0.36480077463147,0.0020385812166755,0.00034449556110237,0.00046637725532297,-0.00043672848794732,-2.7093498818448e-05,-0.00040570147319214,0.40424822529274,0.041402139166345,0.056349107525295,0.10985603859621,-0.0032751405240365,0.11387514526747
1.9765625,51.390625,0.36528579616344,0.0020425433857711,0.00034535685649883,0.00046760958805719,-0.00043783772374522,-2.7167759394631e-05,-0.00040673149434147,0.40476241535752,0.041465695000272,0.05644485858222,0.11007433874882,-0.0032806862913993,0.11409968392799
1.98046875,51.4921875,0.36577054165674,0.0020464947951975,0.00034621475837922,0.00046884023413943,-0.00043894412214187,-2.7241796042609e-05,-0.00040775862304205,0.40527520214038,0.041528857840669,0.056540535737571,0.11029200961676,-0.0032862097946939,0.11432361449999
1.984375,51.59375,0.36625506757551,0.0020504493689588,0.00034707434980261,0.00047007072679714,-0.00044005129364046,-2.7315926463181e-05,-0.00040878690730304,0.40578841995257,0.041592198365769,0.056636030465125,0.11050982568659,-0.0032917394958115,0.11454761756888
1.98828125,51.6953125,0.36673909248269,0.0020543935167473,0.0003479308896735,0.00047129968205523,-0.00044115573712816,-2.7389823895764e-05,-0.00040981232865703,0.40630027588418,0.041655193301571,0.056731466364449,0.11072703668008,-0.0032972450031112,0.11477104919085
1.9921875,51.796875,0.36722293239142,0.0020583391443521,0.00034878880134062,0.00047252727606076,-0.00044226033910824,-2.7463785065565e-05,-0.00041083870350219,0.40681235261825,0.041718355278083,0.056826572984491,0.11094430222251,-0.0033027544931405,0.11499439857363
1.99609375,51.8984375,0.3677065358858,0.0020622738734318,0.00034964295959155,0.00047375415658056,-0.0004433622169279,-2.7537519874663e-05,-0.00041186190576422,0.40732299342754,0.041781060996282,0.056921764036146,0.11116092994482,-0.0033082417425192,0.11521719576595
2,52,0.36819002121017,0.0020662136483717,0.00035049968940034,0.00047498058483036,-0.00044446529886519,-2.7611389145023e-05,-0.00041288691644123,0.40783431839265,0.041844058078674,0.057016679357018,0.1113778051415,-0.0033137386831626,0.11544012882511
2.00390625,52.1015625,0.36867326312386,0.0020701428251304,0.00035135287884615,0.0004762061802758,-0.00044556571647463,-2.7685040115434e-05,-0.00041390886439489,0.408344248691,0.041906629377922,0.057111653563776,0.11159406043329,-0.003319214233007,0.11566251911265
2.0078125,52.203125,0.36915589384063,0.0020740772766314,0.00035220912402046,0.00047743096293777,-0.0004466673551714,-2.7758846267504e-05,-0.00041493272417952,0.40885489810597,0.04196956737823,0.057206289014593,0.1118105812914,-0.0033247024642467,0.11588504917487
2.01171875,52.3046875,0.36963781583993,0.002077995182437,0.00035306003617679,0.000478653809309,-0.00044776473347806,-2.783229537396e-05,-0.00041595185606394,0.4093633735136,0.042031900479746,0.057300960318554,0.11202615618828,-0.0033301567196566,0.11610673156801
2.015625,52.40625,0.37011929649724,0.0020819213102361,0.00035391544429732,0.00047987659261198,-0.00044886370303927,-2.7905889463981e-05,-0.0004169738079125,0.40987298975242,0.042094783364252,0.057395336172912,0.11224227076777,-0.0033356170282183,0.1163287341041
2.01953125,52.5078125,0.37060057326803,0.0020858475163288,0.00035477337412344,0.00048110232402312,-0.00044996086592456,-2.7979264855643e-05,-0.00041799583480579,0.41038278495848,0.042158035138807,0.057490091241989,0.11245892987058,-0.0033410375956107,0.11655096336012
2.0234375,52.609375,0.37108074684011,0.0020897707275736,0.00035563198592637,0.00048232570231825,-0.00045105702165276,-2.8052600050494e-05,-0.0004190174618197,0.4108922148371,0.042221421338545,0.057584473133646,0.1126754035238,-0.0033464530511945,0.11677290979219
2.02734375,52.7109375,0.37156067076111,0.0020936839108997,0.00035648752263812,0.00048354762053234,-0.00045215058800443,-2.8125721218523e-05,-0.00042003634020842,0.41140033056297,0.042284452020544,0.057678803579145,0.11289128377067,-0.0033518470927113,0.11699430157696
2.03125,52.8125,0.37204022994987,0.0020976013279892,0.0003573452775424,0.00048476938637589,-0.00045324518274502,-2.8198957900691e-05,-0.00042105669475624,0.41190902058017,0.042347726902231,0.057772927466661,0.11310737248534,-0.0033572493967613,0.11721581844067
2.03515625,52.9140625,0.37251923922122,0.0021015065820199,0.00035819952501651,0.00048598913415918,-0.00045433661368036,-2.8271945771133e-05,-0.00042207369393793,0.41241611836873,0.04241061625191,0.057866966480957,0.11332275189979,-0.0033626282571843,0.11743667379234
2.0390625,53.015625,0.372998051077,0.0021054183732365,0.00035905667173613,0.00048720917106359,-0.00045542968648424,-2.834509852141e-05,-0.00042309281486559,0.41292409263871,0.042473817467351,0.057960810931707,0.11353846732703,-0.00336801957478,0.11765777277478
2.04296875,53.1171875,0.37347659605155,0.002109319802441,0.00035991030091753,0.00048842840284982,-0.00045652017130513,-2.8418035376513e-05,-0.00042410893630402,0.41343070104727,0.042536592876046,0.058054717838756,0.11375357209457,-0.0033733898987586,0.11787834164486
2.046875,53.21875,0.37395457683128,0.002113223394777,0.00036076579296598,0.00048964673505933,-0.00045761108366725,-2.8491042923862e-05,-0.00042512601761194,0.41393761584944,0.042599596291398,0.058148353292939,0.1139687740734,-0.0033787646710468,0.11809891416352
2.05078125,53.3203125,0.37443196901877,0.0021171153833159,0.00036161777628002,0.0004908635220659,-0.00045869899857298,-2.8563799345314e-05,-0.00042613984787145,0.41444300754166,0.042662202472732,0.058241966181811,0.11418330336176,-0.0033841147913681,0.11831887095412
2.0546875,53.421875,0.37490892184778,0.0021210100389373,0.00036247157951716,0.00049207974043643,-0.00045978752060634,-2.8636635478711e-05,-0.00042715473142316,0.41494876808637,0.042725019101613,0.058335348181935,0.11439795263545,-0.0033894700750591,0.11853886740476
2.05859375,53.5234375,0.37538525647872,0.0021248929113636,0.00036332198986011,0.00049329412444333,-0.0004608729752886,-2.8709228565899e-05,-0.00042816634772186,0.41545298448166,0.042787462455284,0.058428667392603,0.11461191937131,-0.0033948023554003,0.11875823003241
2.0625,53.625,0.37586089070125,0.0021287784798851,0.00036417456646515,0.00049450741676953,-0.00046195897828547,-2.8781908081136e-05,-0.00042917911220702,0.41595758088685,0.042850175565118,0.058521672796507,0.11482601110417,-0.0034001408169608,0.11897761244007
2.06640625,53.7265625,0.37633634863789,0.0021326526801062,0.00036502320631351,0.0004957198815002,-0.0004630421445943,-2.8854344325111e-05,-0.00043018855863574,0.41646067723917,0.042912414524691,0.058614765991761,0.11503943741283,-0.0034054556994808,0.11919642320798
2.0703125,53.828125,0.37681175553721,0.0021365414854282,0.00036588029577259,0.00049693496040522,-0.00046412793890891,-2.8926657703335e-05,-0.00043120175834877,0.41696588419713,0.042975707007389,0.058707823403615,0.11525407429537,-0.0034107239107728,0.119416230297
2.07421875,53.9296875,0.37728687667488,0.0021404207928809,0.00036673485417115,0.00049814964305616,-0.00046521109550583,-2.8998660222749e-05,-0.00043221203237418,0.41746988058606,0.043038715850926,0.058800988355814,0.11546825432754,-0.0034159548424315,0.11963563921184
2.078125,54.03125,0.37776157317299,0.0021443024035095,0.00036759110033275,0.00049936373529464,-0.00046629475774224,-2.9070739525637e-05,-0.00043322324500417,0.41797419959127,0.043101919490951,0.058893929385391,0.11568253707705,-0.0034211913185484,0.1198550737323
2.08203125,54.1328125,0.37823621750085,0.0021481817580122,0.00036844868253232,0.00050057947277419,-0.00046737735555318,-2.9142404201309e-05,-0.00043423298796464,0.41847833847571,0.043165321729284,0.058987111295979,0.11589695102664,-0.0034263620763749,0.1200747031072
2.0859375,54.234375,0.37871087698852,0.0021520796557913,0.00036931805142117,0.00050180102078884,-0.00046846340066835,-2.921364248708e-05,-0.00043524592832096,0.41898525850864,0.043230216270913,0.059080654235964,0.11611309806512,-0.0034314316218532,0.12029606499727
2.08984375,54.3359375,0.37918513247822,0.0021559656814337,0.00037018372134049,0.00050302101882499,-0.00046954641845183,-2.9284636138778e-05,-0.00043625552447444,0.41949061628461,0.043294684465359,0.059174184177859,0.11632854815071,-0.0034364787979039,0.12051679828109
2.09375,54.4375,0.37965851796379,0.0021598538538249,0.00037105139545017,0.00050423988686147,-0.00047062983605599,-2.9355706862091e-05,-0.00043726610014537,0.41999628319653,0.043359401809273,0.059267408236252,0.11654409547739,-0.0034415321721456,0.12073752807844
2.09765625,54.5390625,0.38013169681762,0.0021637335338198,0.00037191636811849,0.00050545786595997,-0.00047171112645959,-2.9426599583379e-05,-0.00043827427070616,0.42050083218552,0.043423791448336,0.059360638541595,0.11675913404725,-0.0034465683860876,0.12095780551059
2.1015625,54.640625,0.38060442767855,0.0021676138391511,0.00037278237301589,0.0005066751926379,-0.00047279251015605,-2.9497526305365e-05,-0.00043928285642021,0.42100548135171,0.043488296849628,0.059453678490169,0.11697418135526,-0.0034516064601505,0.12117803539481
2.10546875,54.7421875,0.38107680962214,0.0021714867580207,0.00037364618553939,0.00050789156043391,-0.00047387201973988,-2.9568304451926e-05,-0.00044028939880147,0.42150916163934,0.043552538772878,0.059546685912975,0.1171887840241,-0.0034566302938903,0.1213978575632
2.109375,54.84375,0.38154940443276,0.0021753811981671,0.00037452512728711,0.00050911191475328,-0.00047495289094931,-2.9638468509165e-05,-0.00044130155992307,0.42201624861974,0.043618785861777,0.05963969469263,0.11740586776133,-0.003461517884817,0.12161942594864
2.11328125,54.9453125,0.38202185062584,0.0021792833885349,0.00037541228914695,0.0005103376842645,-0.00047603326668953,-2.9706769708834e-05,-0.00044231406142786,0.42252478982159,0.043686143771631,0.059733285947606,0.11762437885652,-0.0034660918338326,0.12184226304111
2.1171875,55.046875,0.38249387611895,0.0021831998970194,0.00037630917709668,0.00051157101109905,-0.0004771155890809,-2.9772465132529e-05,-0.00044332878477596,0.42303551429317,0.043754721016957,0.05982762241905,0.11784450301521,-0.003470221895252,0.12206663235197
2.12109375,55.1484375,0.38296542954443,0.0021871080226935,0.00037720363449226,0.00051280311352625,-0.00047819579013011,-2.983798878589e-05,-0.00044434120574386,0.42354513587126,0.043823006673831,0.059921908205149,0.11806411795407,-0.0034743377132941,0.12229053525491
2.125,55.25,0.3834360762564,0.0021910127463155,0.00037809825587531,0.00051403326497101,-0.00047927496295905,-2.9903468834779e-05,-0.00044535300937012,0.42405433357436,0.043891338412061,0.060015900464123,0.11828351453945,-0.0034784516247416,0.12251415822902
2.1259765625,55.275390625,0.38355361246826,0.0021919862056038,0.00037832095395993,0.00051434050549661,-0.00047954406811634,-2.991978299848e-05,-0.00044560517063217,0.4241812710507,0.0439083128584,0.060039416835771,0.11833820761722,-0.0034794755472541,0.12256992893113
2.126220703125,55.28173828125,0.38358298514622,0.0021922305538678,0.00037837703743444,0.00051441734410526,-0.00047961158252588,-2.9923883243905e-05,-0.00044566851346144,0.42421313722218,0.043912604970611,0.060045274741873,0.11835193728449,-0.0034797333943332,0.12258391588056
2.1262817382812,55.283325195313,0.38359032220042,0.0021922911897844,0.00037839087999582,0.00051443652694401,-0.00047962835085239,-2.9924898530142e-05,-0.00044568421263039,0.42422104342975,0.043913657213164,0.06004674662038,0.1183553437153,-0.0034797970294846,0.12258739166329
