time,load,mises,pe_eff,pe_xx,strain_xx,stress_xx
0,0,0,0,0,0,0
0.01,2.1333333333333e-07,1.7066666666667,0,0,2.1333333333333e-07,1.7066666666667
0.02,4.2666666666667e-07,3.4133333333333,0,0,4.2666666666667e-07,3.4133333333333
0.03,6.4e-07,5.12,0,0,6.4e-07,5.12
0.04,8.5333333333333e-07,6.8266666666667,0,0,8.5333333333333e-07,6.8266666666667
0.05,1.0666666666667e-06,8.5333333333333,0,0,1.0666666666667e-06,8.5333333333333
0.06,1.28e-06,10.24,0,0,1.28e-06,10.24
0.07,1.4933333333333e-06,11.946666666667,0,0,1.4933333333333e-06,11.946666666667
0.08,1.7066666666667e-06,13.653333333333,0,0,1.7066666666667e-06,13.653333333333
0.09,1.92e-06,15.36,0,0,1.92e-06,15.36
0.1,2.1333333333333e-06,17.066666666667,0,0,2.1333333333333e-06,17.066666666667
0.11,2.3466666666667e-06,18.773333333333,0,0,2.3466666666667e-06,18.773333333333
0.12,2.56e-06,20.48,0,0,2.56e-06,20.48
0.13,2.7733333333333e-06,22.186666666667,0,0,2.7733333333333e-06,22.186666666667
0.14,2.9866666666667e-06,23.893333333333,0,0,2.9866666666667e-06,23.893333333333
0.15,3.2e-06,25.6,0,0,3.2e-06,25.6
0.16,3.4133333333333e-06,27.306666666667,0,0,3.4133333333333e-06,27.306666666667
0.17,3.6266666666667e-06,29.013333333333,0,0,3.6266666666667e-06,29.013333333333
0.18,3.84e-06,30.72,0,0,3.84e-06,30.72
0.19,4.0533333333333e-06,32.426666666667,0,0,4.0533333333333e-06,32.426666666667
0.2,4.2666666666667e-06,34.133333333333,0,0,4.2666666666667e-06,34.133333333333
0.21,4.48e-06,35.84,0,0,4.48e-06,35.84
0.22,4.6933333333333e-06,37.546666666667,0,0,4.6933333333333e-06,37.546666666667
0.23,4.9066666666667e-06,39.253333333333,0,0,4.9066666666667e-06,39.253333333333
0.24,5.12e-06,40.96,0,0,5.12e-06,40.96
0.25,5.3333333333333e-06,42.666666666667,0,0,5.3333333333333e-06,42.666666666667
0.26,5.5466666666667e-06,44.373333333333,0,0,5.5466666666667e-06,44.373333333333
0.27,5.76e-06,46.08,0,0,5.76e-06,46.08
0.28,5.9733333333333e-06,47.786666666667,0,0,5.9733333333333e-06,47.786666666667
0.29,6.1866666666667e-06,49.493333333333,0,0,6.1866666666667e-06,49.493333333333
0.3,6.4e-06,51.2,0,0,6.4e-06,51.2
0.31,6.6133333333333e-06,52.906666666667,0,0,6.6133333333333e-06,52.906666666667
0.32,6.8266666666667e-06,54.613333333333,0,0,6.8266666666667e-06,54.613333333333
0.33,7.04e-06,56.32,0,0,7.04e-06,56.32
0.34,7.2533333333333e-06,58.026666666667,0,0,7.2533333333333e-06,58.026666666667
0.35,7.4666666666667e-06,59.733333333333,0,0,7.4666666666667e-06,59.733333333333
0.36,7.68e-06,61.44,0,0,7.68e-06,61.44
0.37,7.8933333333333e-06,63.146666666667,0,0,7.8933333333333e-06,63.146666666667
0.38,8.1066666666667e-06,64.853333333333,0,0,8.1066666666667e-06,64.853333333333
0.39,8.32e-06,66.56,0,0,8.32e-06,66.56
0.4,8.5333333333333e-06,68.266666666667,0,0,8.5333333333333e-06,68.266666666667
0.41,8.7466666666667e-06,69.973333333333,0,0,8.7466666666667e-06,69.973333333333
0.42,8.96e-06,71.68,0,0,8.96e-06,71.68
0.43,9.1733333333333e-06,73.386666666667,0,0,9.1733333333333e-06,73.386666666667
0.44,9.3866666666667e-06,75.093333333333,0,0,9.3866666666667e-06,75.093333333333
0.45,9.6e-06,76.8,0,0,9.6e-06,76.8
0.46,9.8133333333333e-06,78.506666666667,0,0,9.8133333333333e-06,78.506666666667
0.47,1.0026666666667e-05,80.213333333333,0,0,1.0026666666667e-05,80.213333333333
0.48,1.024e-05,81.92,0,0,1.024e-05,81.92
0.49,1.0453333333333e-05,83.626666666667,0,0,1.0453333333333e-05,83.626666666667
0.5,1.0666666666667e-05,85.333333333333,0,0,1.0666666666667e-05,85.333333333333
0.51,1.088e-05,87.04,0,0,1.088e-05,87.04
0.52,1.1093333333333e-05,88.746666666667,0,0,1.1093333333333e-05,88.746666666667
0.53,1.1306666666667e-05,90.453333333333,0,0,1.1306666666667e-05,90.453333333333
0.54,1.152e-05,92.16,0,0,1.152e-05,92.16
0.55,1.1733333333333e-05,93.866666666667,0,0,1.1733333333333e-05,93.866666666667
0.56,1.1946666666667e-05,95.573333333333,0,0,1.1946666666667e-05,95.573333333333
0.57,1.216e-05,97.28,0,0,1.216e-05,97.28
0.58,1.2373333333333e-05,98.986666666667,0,0,1.2373333333333e-05,98.986666666667
0.59,1.2586666666667e-05,100.69333333333,0,0,1.2586666666667e-05,100.69333333333
0.6,1.28e-05,102.4,0,0,1.28e-05,102.4
0.61,1.3013333333333e-05,104.10666666667,0,0,1.3013333333333e-05,104.10666666667
0.62,1.3226666666667e-05,105.81333333333,0,0,1.3226666666667e-05,105.81333333333
0.63,1.344e-05,107.52,0,0,1.344e-05,107.52
0.64,1.3653333333333e-05,109.22666666667,0,0,1.3653333333333e-05,109.22666666667
0.65,1.3866666666667e-05,110.93333333333,0,0,1.3866666666667e-05,110.93333333333
0.66,1.408e-05,112.64,0,0,1.408e-05,112.64
0.67,1.4293333333333e-05,114.34666666667,0,0,1.4293333333333e-05,114.34666666667
0.68,1.4506666666667e-05,116.05333333333,0,0,1.4506666666667e-05,116.05333333333
0.69,1.472e-05,117.76,0,0,1.472e-05,117.76
0.7,1.4933333333333e-05,119.46666666667,0,0,1.4933333333333e-05,119.46666666667
0.71,1.5146666666667e-05,121.17333333333,0,0,1.5146666666667e-05,121.17333333333
0.72,1.536e-05,122.88,0,0,1.536e-05,122.88
0.73,1.5573333333333e-05,124.58666666667,0,0,1.5573333333333e-05,124.58666666667
0.74,1.5786666666667e-05,126.29333333333,0,0,1.5786666666667e-05,126.29333333333
0.75,1.6e-05,128,0,0,1.6e-05,128
0.76,1.6213333333333e-05,129.70666666667,0,0,1.6213333333333e-05,129.70666666667
0.77,1.6426666666667e-05,131.41333333333,0,0,1.6426666666667e-05,131.41333333333
0.78,1.664e-05,133.12,0,0,1.664e-05,133.12
0.79,1.6853333333333e-05,134.82666666667,0,0,1.6853333333333e-05,134.82666666667
0.8,1.7066666666667e-05,136.53333333333,0,0,1.7066666666667e-05,136.53333333333
0.81,1.728e-05,138.24,0,0,1.728e-05,138.24
0.82,1.7493333333333e-05,139.94666666667,0,0,1.7493333333333e-05,139.94666666667
0.83,1.7706666666667e-05,141.65333333333,0,0,1.7706666666667e-05,141.65333333333
0.84,1.792e-05,143.36,0,0,1.792e-05,143.36
0.85,1.8133333333333e-05,145.06666666667,0,0,1.8133333333333e-05,145.06666666667
0.86,1.8346666666667e-05,146.77333333333,0,0,1.8346666666667e-05,146.77333333333
0.87,1.856e-05,148.48,0,0,1.856e-05,148.48
0.88,1.8773333333333e-05,150.18666666667,0,0,1.8773333333333e-05,150.18666666667
0.89,1.8986666666667e-05,151.89333333333,0,0,1.8986666666667e-05,151.89333333333
0.9,1.92e-05,153.6,0,0,1.92e-05,153.6
0.91,1.9413333333333e-05,155.30666666667,0,0,1.9413333333333e-05,155.30666666667
0.92,1.9626666666667e-05,157.01333333333,0,0,1.9626666666667e-05,157.01333333333
0.93,1.984e-05,158.72,0,0,1.984e-05,158.72
0.94,2.0053333333333e-05,160.42666666667,0,0,2.0053333333333e-05,160.42666666667
0.95,2.0266666666667e-05,162.13333333333,0,0,2.0266666666667e-05,162.13333333333
0.96,2.048e-05,163.84,0,0,2.048e-05,163.84
0.97,2.0693333333333e-05,165.54666666667,0,0,2.0693333333333e-05,165.54666666667
0.98,2.0906666666667e-05,167.25333333333,0,0,2.0906666666667e-05,167.25333333333
0.99,2.112e-05,168.96,0,0,2.112e-05,168.96
1,2.1333333333333e-05,170.66666666667,0,0,2.1333333333333e-05,170.66666666667
1.01,2.1546666666667e-05,172.37333333333,0,0,2.1546666666667e-05,172.37333333333
1.02,2.176e-05,174.08,0,0,2.176e-05,174.08
1.03,2.1973333333333e-05,175.78666666667,0,0,2.1973333333333e-05,175.78666666667
1.04,2.2186666666667e-05,177.49333333333,0,0,2.2186666666667e-05,177.49333333333
1.05,2.24e-05,179.2,0,0,2.24e-05,179.2
1.06,2.2613333333333e-05,180.90666666667,0,0,2.2613333333333e-05,180.90666666667
1.07,2.2826666666667e-05,182.61333333333,0,0,2.2826666666667e-05,182.61333333333
1.08,2.304e-05,184.32,0,0,2.304e-05,184.32
1.09,2.3253333333333e-05,186.02666666667,0,0,2.3253333333333e-05,186.02666666667
1.1,2.3466666666667e-05,187.73333333333,0,0,2.3466666666667e-05,187.73333333333
1.11,2.368e-05,189.44,0,0,2.368e-05,189.44
1.12,2.3893333333333e-05,191.14666666667,0,0,2.3893333333333e-05,191.14666666667
1.13,2.4106666666667e-05,192.85333333333,0,0,2.4106666666667e-05,192.85333333333
1.14,2.432e-05,194.56,0,0,2.432e-05,194.56
1.15,2.4533333333333e-05,196.26666666667,0,0,2.4533333333333e-05,196.26666666667
1.16,2.4746666666667e-05,197.97333333333,0,0,2.4746666666667e-05,197.97333333333
1.17,2.496e-05,199.68,0,0,2.496e-05,199.68
1.18,2.5173333333333e-05,200.09674418603,1.6124031005727e-07,1.6124031005727e-07,2.5173333333333e-05,200.09674418621
1.19,2.5386666666667e-05,200.21581395347,3.5968992245609e-07,3.5968992245609e-07,2.5386666666667e-05,200.21581395368
1.2,2.56e-05,200.33488372092,5.5813953485919e-07,5.5813953485919e-07,2.56e-05,200.33488372113
1.21,2.5813333333333e-05,200.45395348836,7.5658914726229e-07,7.5658914726229e-07,2.5813333333333e-05,200.45395348857
1.22,2.6026666666667e-05,200.5730232558,9.5503875966539e-07,9.5503875966539e-07,2.6026666666667e-05,200.57302325601
1.23,2.624e-05,200.69209302324,1.1534883720685e-06,1.1534883720685e-06,2.624e-05,200.69209302345
1.24,2.6453333333333e-05,200.81116279068,1.3519379844716e-06,1.3519379844716e-06,2.6453333333333e-05,200.81116279089
1.25,2.6666666666667e-05,200.93023255812,1.5503875968747e-06,1.5503875968747e-06,2.6666666666667e-05,200.93023255834
1.26,2.688e-05,201.04930232557,1.7488372092778e-06,1.7488372092778e-06,2.688e-05,201.04930232578
1.27,2.7093333333333e-05,201.16837209301,1.9472868216809e-06,1.9472868216809e-06,2.7093333333333e-05,201.16837209322
1.28,2.7306666666667e-05,201.28744186045,2.145736434084e-06,2.145736434084e-06,2.7306666666667e-05,201.28744186066
1.29,2.752e-05,201.40651162789,2.3441860464871e-06,2.3441860464871e-06,2.752e-05,201.4065116281
1.3,2.7733333333333e-05,201.52558139533,2.5426356588902e-06,2.5426356588902e-06,2.7733333333333e-05,201.52558139555
1.31,2.7946666666667e-05,201.64465116278,2.7410852712933e-06,2.7410852712933e-06,2.7946666666667e-05,201.64465116299
1.32,2.816e-05,201.76372093022,2.9395348836964e-06,2.9395348836964e-06,2.816e-05,201.76372093043
1.33,2.8373333333333e-05,201.88279069766,3.1379844960995e-06,3.1379844960995e-06,2.8373333333333e-05,201.88279069787
1.34,2.8586666666667e-05,202.0018604651,3.3364341085026e-06,3.3364341085026e-06,2.8586666666667e-05,202.00186046531
1.35,2.88e-05,202.12093023254,3.5348837209057e-06,3.5348837209057e-06,2.88e-05,202.12093023275
1.36,2.9013333333333e-05,202.23999999999,3.7333333333088e-06,3.7333333333088e-06,2.9013333333333e-05,202.2400000002
1.37,2.9226666666667e-05,202.35906976743,3.9317829457119e-06,3.9317829457119e-06,2.9226666666667e-05,202.35906976764
1.38,2.944e-05,202.47813953487,4.130232558115e-06,4.130232558115e-06,2.944e-05,202.47813953508
1.39,2.9653333333333e-05,202.59720930231,4.3286821705181e-06,4.3286821705181e-06,2.9653333333333e-05,202.59720930252
1.4,2.9866666666667e-05,202.71627906975,4.5271317829212e-06,4.5271317829212e-06,2.9866666666667e-05,202.71627906996
1.41,3.008e-05,202.83534883719,4.7255813953243e-06,4.7255813953243e-06,3.008e-05,202.83534883741
1.42,3.0293333333333e-05,202.95441860464,4.9240310077274e-06,4.9240310077274e-06,3.0293333333333e-05,202.95441860485
1.43,3.0506666666667e-05,203.07348837208,5.1224806201305e-06,5.1224806201305e-06,3.0506666666667e-05,203.07348837229
1.44,3.072e-05,203.19255813952,5.3209302325336e-06,5.3209302325336e-06,3.072e-05,203.19255813973
1.45,3.0933333333333e-05,203.31162790696,5.5193798449367e-06,5.5193798449367e-06,3.0933333333333e-05,203.31162790717
1.46,3.1146666666667e-05,203.4306976744,5.7178294573398e-06,5.7178294573398e-06,3.1146666666667e-05,203.43069767462
1.47,3.136e-05,203.54976744185,5.9162790697429e-06,5.9162790697429e-06,3.136e-05,203.54976744206
1.48,3.1573333333333e-05,203.66883720929,6.114728682146e-06,6.114728682146e-06,3.1573333333333e-05,203.6688372095
1.49,3.1786666666667e-05,203.78790697673,6.3131782945491e-06,6.3131782945491e-06,3.1786666666667e-05,203.78790697694
1.5,3.2e-05,203.90697674417,6.5116279069522e-06,6.5116279069522e-06,3.2e-05,203.90697674438
1.51,3.2213333333333e-05,204.02604651161,6.7100775193553e-06,6.7100775193553e-06,3.2213333333333e-05,204.02604651182
1.52,3.2426666666667e-05,204.14511627906,6.9085271317584e-06,6.9085271317584e-06,3.2426666666667e-05,204.14511627927
1.53,3.264e-05,204.2641860465,7.1069767441615e-06,7.1069767441615e-06,3.264e-05,204.26418604671
1.54,3.2853333333333e-05,204.38325581394,7.3054263565646e-06,7.3054263565646e-06,3.2853333333333e-05,204.38325581415
1.55,3.3066666666667e-05,204.50232558138,7.5038759689677e-06,7.5038759689677e-06,3.3066666666667e-05,204.50232558159
1.56,3.328e-05,204.62139534882,7.7023255813708e-06,7.7023255813708e-06,3.328e-05,204.62139534903
1.57,3.3493333333333e-05,204.74046511626,7.9007751937739e-06,7.9007751937739e-06,3.3493333333333e-05,204.74046511648
1.58,3.3706666666667e-05,204.85953488371,8.099224806177e-06,8.099224806177e-06,3.3706666666667e-05,204.85953488392
1.59,3.392e-05,204.97860465115,8.2976744185801e-06,8.2976744185801e-06,3.392e-05,204.97860465136
1.6,3.4133333333333e-05,205.09767441859,8.4961240309832e-06,8.4961240309832e-06,3.4133333333333e-05,205.0976744188
1.61,3.4346666666667e-05,205.21674418603,8.6945736433863e-06,8.6945736433863e-06,3.4346666666667e-05,205.21674418624
1.62,3.456e-05,205.33581395347,8.8930232557895e-06,8.8930232557895e-06,3.456e-05,205.33581395368
1.63,3.4773333333333e-05,205.45488372092,9.0914728681925e-06,9.0914728681925e-06,3.4773333333333e-05,205.45488372113
1.64,3.4986666666667e-05,205.57395348836,9.2899224805957e-06,9.2899224805957e-06,3.4986666666667e-05,205.57395348857
1.65,3.52e-05,205.6930232558,9.4883720929988e-06,9.4883720929988e-06,3.52e-05,205.69302325601
1.66,3.5413333333333e-05,205.81209302324,9.6868217054019e-06,9.6868217054019e-06,3.5413333333333e-05,205.81209302345
1.67,3.5626666666667e-05,205.93116279068,9.885271317805e-06,9.885271317805e-06,3.5626666666667e-05,205.93116279089
1.68,3.584e-05,206.05023255812,1.0083720930208e-05,1.0083720930208e-05,3.584e-05,206.05023255834
1.69,3.6053333333333e-05,206.16930232557,1.0282170542611e-05,1.0282170542611e-05,3.6053333333333e-05,206.16930232578
1.7,3.6266666666667e-05,206.28837209301,1.0480620155014e-05,1.0480620155014e-05,3.6266666666667e-05,206.28837209322
1.71,3.648e-05,206.40744186045,1.0679069767417e-05,1.0679069767417e-05,3.648e-05,206.40744186066
1.72,3.6693333333333e-05,206.52651162789,1.087751937982e-05,1.087751937982e-05,3.6693333333333e-05,206.5265116281
1.73,3.6906666666667e-05,206.64558139533,1.1075968992224e-05,1.1075968992224e-05,3.6906666666667e-05,206.64558139555
1.74,3.712e-05,206.76465116278,1.1274418604627e-05,1.1274418604627e-05,3.712e-05,206.76465116299
1.75,3.7333333333333e-05,206.88372093022,1.147286821703e-05,1.147286821703e-05,3.7333333333333e-05,206.88372093043
1.76,3.7546666666667e-05,207.00279069766,1.1671317829433e-05,1.1671317829433e-05,3.7546666666667e-05,207.00279069787
1.77,3.776e-05,207.1218604651,1.1869767441836e-05,1.1869767441836e-05,3.776e-05,207.12186046531
1.78,3.7973333333333e-05,207.24093023254,1.2068217054239e-05,1.2068217054239e-05,3.7973333333333e-05,207.24093023275
1.79,3.8186666666667e-05,207.35999999999,1.2266666666642e-05,1.2266666666642e-05,3.8186666666667e-05,207.3600000002
1.8,3.84e-05,207.47906976743,1.2465116279045e-05,1.2465116279045e-05,3.84e-05,207.47906976764
1.81,3.8613333333333e-05,207.59813953487,1.2663565891448e-05,1.2663565891448e-05,3.8613333333333e-05,207.59813953508
1.82,3.8826666666667e-05,207.71720930231,1.2862015503851e-05,1.2862015503851e-05,3.8826666666667e-05,207.71720930252
1.83,3.904e-05,207.83627906975,1.3060465116255e-05,1.3060465116255e-05,3.904e-05,207.83627906996
1.84,3.9253333333333e-05,207.95534883719,1.3258914728658e-05,1.3258914728658e-05,3.9253333333333e-05,207.95534883741
1.85,3.9466666666667e-05,208.07441860464,1.3457364341061e-05,1.3457364341061e-05,3.9466666666667e-05,208.07441860485
1.86,3.968e-05,208.19348837208,1.3655813953464e-05,1.3655813953464e-05,3.968e-05,208.19348837229
1.87,3.9893333333333e-05,208.31255813952,1.3854263565867e-05,1.3854263565867e-05,3.9893333333333e-05,208.31255813973
1.88,4.0106666666667e-05,208.43162790696,1.405271317827e-05,1.405271317827e-05,4.0106666666667e-05,208.43162790717
1.89,4.032e-05,208.5506976744,1.4251162790673e-05,1.4251162790673e-05,4.032e-05,208.55069767462
1.9,4.0533333333333e-05,208.66976744185,1.4449612403076e-05,1.4449612403076e-05,4.0533333333333e-05,208.66976744206
1.91,4.0746666666667e-05,208.78883720929,1.4648062015479e-05,1.4648062015479e-05,4.0746666666667e-05,208.7888372095
1.92,4.096e-05,208.90790697673,1.4846511627883e-05,1.4846511627883e-05,4.096e-05,208.90790697694
1.93,4.1173333333333e-05,209.02697674417,1.5044961240286e-05,1.5044961240286e-05,4.1173333333333e-05,209.02697674438
1.94,4.1386666666667e-05,209.14604651161,1.5243410852689e-05,1.5243410852689e-05,4.1386666666667e-05,209.14604651182
1.95,4.16e-05,209.26511627906,1.5441860465092e-05,1.5441860465092e-05,4.16e-05,209.26511627927
1.96,4.1813333333333e-05,209.3841860465,1.5640310077495e-05,1.5640310077495e-05,4.1813333333333e-05,209.38418604671
1.97,4.2026666666667e-05,209.50325581394,1.5838759689898e-05,1.5838759689898e-05,4.2026666666667e-05,209.50325581415
1.98,4.224e-05,209.62232558138,1.6037209302301e-05,1.6037209302301e-05,4.224e-05,209.62232558159
1.99,4.2453333333333e-05,209.74139534882,1.6235658914704e-05,1.6235658914704e-05,4.2453333333333e-05,209.74139534903
2,4.2666666666667e-05,209.86046511626,1.6434108527107e-05,1.6434108527107e-05,4.2666666666667e-05,209.86046511648
2.01,4.288e-05,209.97953488371,1.663255813951e-05,1.663255813951e-05,4.288e-05,209.97953488392
2.02,4.3093333333333e-05,210.09860465115,1.6831007751913e-05,1.6831007751913e-05,4.3093333333333e-05,210.09860465136
2.03,4.3306666666667e-05,210.21767441859,1.7029457364317e-05,1.7029457364317e-05,4.3306666666667e-05,210.2176744188
2.04,4.352e-05,210.33674418603,1.722790697672e-05,1.722790697672e-05,4.352e-05,210.33674418624
2.05,4.3733333333333e-05,210.45581395347,1.7426356589123e-05,1.7426356589123e-05,4.3733333333333e-05,210.45581395368
2.06,4.3946666666667e-05,210.57488372092,1.7624806201526e-05,1.7624806201526e-05,4.3946666666667e-05,210.57488372113
2.07,4.416e-05,210.69395348836,1.7823255813929e-05,1.7823255813929e-05,4.416e-05,210.69395348857
2.08,4.4373333333333e-05,210.8130232558,1.8021705426332e-05,1.8021705426332e-05,4.4373333333333e-05,210.81302325601
2.09,4.4586666666667e-05,210.93209302324,1.8220155038735e-05,1.8220155038735e-05,4.4586666666667e-05,210.93209302345
2.1,4.48e-05,211.05116279068,1.8418604651138e-05,1.8418604651138e-05,4.48e-05,211.05116279089
2.11,4.5013333333333e-05,211.17023255812,1.8617054263541e-05,1.8617054263541e-05,4.5013333333333e-05,211.17023255834
2.12,4.5226666666667e-05,211.28930232557,1.8815503875944e-05,1.8815503875944e-05,4.5226666666667e-05,211.28930232578
2.13,4.544e-05,211.40837209301,1.9013953488348e-05,1.9013953488348e-05,4.544e-05,211.40837209322
2.14,4.5653333333333e-05,211.52744186045,1.9212403100751e-05,1.9212403100751e-05,4.5653333333333e-05,211.52744186066
2.15,4.5866666666667e-05,211.64651162789,1.9410852713154e-05,1.9410852713154e-05,4.5866666666667e-05,211.6465116281
2.16,4.608e-05,211.76558139533,1.9609302325557e-05,1.9609302325557e-05,4.608e-05,211.76558139555
2.17,4.6293333333333e-05,211.88465116278,1.980775193796e-05,1.980775193796e-05,4.6293333333333e-05,211.88465116299
2.18,4.6506666666667e-05,212.00372093022,2.0006201550363e-05,2.0006201550363e-05,4.6506666666667e-05,212.00372093043
2.19,4.672e-05,212.12279069766,2.0204651162766e-05,2.0204651162766e-05,4.672e-05,212.12279069787
2.2,4.6933333333333e-05,212.2418604651,2.0403100775169e-05,2.0403100775169e-05,4.6933333333333e-05,212.24186046531
2.21,4.7146666666667e-05,212.36093023254,2.0601550387572e-05,2.0601550387572e-05,4.7146666666667e-05,212.36093023275
2.22,4.736e-05,212.47999999999,2.0799999999975e-05,2.0799999999975e-05,4.736e-05,212.4800000002
2.23,4.7573333333333e-05,212.59906976743,2.0998449612379e-05,2.0998449612379e-05,4.7573333333333e-05,212.59906976764
2.24,4.7786666666667e-05,212.71813953487,2.1196899224782e-05,2.1196899224782e-05,4.7786666666667e-05,212.71813953508
2.25,4.8e-05,212.83720930231,2.1395348837185e-05,2.1395348837185e-05,4.8e-05,212.83720930252
2.26,4.8213333333333e-05,212.95627906975,2.1593798449588e-05,2.1593798449588e-05,4.8213333333333e-05,212.95627906996
2.27,4.8426666666667e-05,213.07534883719,2.1792248061991e-05,2.1792248061991e-05,4.8426666666667e-05,213.07534883741
2.28,4.864e-05,213.19441860464,2.1990697674394e-05,2.1990697674394e-05,4.864e-05,213.19441860485
2.29,4.8853333333333e-05,213.31348837208,2.2189147286797e-05,2.2189147286797e-05,4.8853333333333e-05,213.31348837229
2.3,4.9066666666667e-05,213.43255813952,2.23875968992e-05,2.23875968992e-05,4.9066666666667e-05,213.43255813973
2.31,4.928e-05,213.55162790696,2.2586046511603e-05,2.2586046511603e-05,4.928e-05,213.55162790717
2.32,4.9493333333333e-05,213.6706976744,2.2784496124006e-05,2.2784496124006e-05,4.9493333333333e-05,213.67069767461
2.33,4.9706666666667e-05,213.78976744185,2.2982945736409e-05,2.2982945736409e-05,4.9706666666667e-05,213.78976744206
2.34,4.992e-05,213.90883720929,2.3181395348813e-05,2.3181395348813e-05,4.992e-05,213.9088372095
2.35,5.0133333333333e-05,214.02790697673,2.3379844961216e-05,2.3379844961216e-05,5.0133333333333e-05,214.02790697694
2.36,5.0346666666667e-05,214.14697674417,2.3578294573619e-05,2.3578294573619e-05,5.0346666666667e-05,214.14697674438
2.37,5.056e-05,214.26604651161,2.3776744186022e-05,2.3776744186022e-05,5.056e-05,214.26604651182
2.38,5.0773333333333e-05,214.38511627905,2.3975193798425e-05,2.3975193798425e-05,5.0773333333333e-05,214.38511627927
2.39,5.0986666666667e-05,214.5041860465,2.4173643410828e-05,2.4173643410828e-05,5.0986666666667e-05,214.50418604671
2.4,5.12e-05,214.62325581394,2.4372093023231e-05,2.4372093023231e-05,5.12e-05,214.62325581415
2.41,5.1413333333333e-05,214.74232558138,2.4570542635634e-05,2.4570542635634e-05,5.1413333333333e-05,214.74232558159
2.42,5.1626666666666e-05,214.86139534882,2.4768992248037e-05,2.4768992248037e-05,5.1626666666667e-05,214.86139534903
2.43,5.184e-05,214.98046511626,2.496744186044e-05,2.496744186044e-05,5.184e-05,214.98046511648
2.44,5.2053333333333e-05,215.09953488371,2.5165891472844e-05,2.5165891472844e-05,5.2053333333333e-05,215.09953488392
2.45,5.2266666666666e-05,215.21860465115,2.5364341085247e-05,2.5364341085247e-05,5.2266666666666e-05,215.21860465136
2.46,5.248e-05,215.33767441859,2.556279069765e-05,2.556279069765e-05,5.248e-05,215.3376744188
2.47,5.2693333333333e-05,215.45674418603,2.5761240310053e-05,2.5761240310053e-05,5.2693333333333e-05,215.45674418624
2.48,5.2906666666666e-05,215.57581395347,2.5959689922456e-05,2.5959689922456e-05,5.2906666666666e-05,215.57581395368
2.49,5.312e-05,215.69488372092,2.6158139534859e-05,2.6158139534859e-05,5.312e-05,215.69488372113
2.5,5.3333333333333e-05,215.81395348836,2.6356589147262e-05,2.6356589147262e-05,5.3333333333333e-05,215.81395348857
2.51,5.3546666666666e-05,215.9330232558,2.6555038759665e-05,2.6555038759665e-05,5.3546666666666e-05,215.93302325601
2.52,5.376e-05,216.05209302324,2.6753488372068e-05,2.6753488372068e-05,5.376e-05,216.05209302345
2.53,5.3973333333333e-05,216.17116279068,2.6951937984471e-05,2.6951937984471e-05,5.3973333333333e-05,216.17116279089
2.54,5.4186666666666e-05,216.29023255812,2.7150387596875e-05,2.7150387596875e-05,5.4186666666666e-05,216.29023255834
2.55,5.44e-05,216.40930232557,2.7348837209278e-05,2.7348837209278e-05,5.44e-05,216.40930232578
2.56,5.4613333333333e-05,216.52837209301,2.7547286821681e-05,2.7547286821681e-05,5.4613333333333e-05,216.52837209322
2.57,5.4826666666666e-05,216.64744186045,2.7745736434084e-05,2.7745736434084e-05,5.4826666666666e-05,216.64744186066
2.58,5.504e-05,216.76651162789,2.7944186046487e-05,2.7944186046487e-05,5.504e-05,216.7665116281
2.59,5.5253333333333e-05,216.88558139533,2.814263565889e-05,2.814263565889e-05,5.5253333333333e-05,216.88558139555
2.6,5.5466666666666e-05,217.00465116278,2.8341085271293e-05,2.8341085271293e-05,5.5466666666666e-05,217.00465116299
2.61,5.568e-05,217.12372093022,2.8539534883696e-05,2.8539534883696e-05,5.568e-05,217.12372093043
2.62,5.5893333333333e-05,217.24279069766,2.8737984496099e-05,2.8737984496099e-05,5.5893333333333e-05,217.24279069787
2.63,5.6106666666666e-05,217.3618604651,2.8936434108502e-05,2.8936434108502e-05,5.6106666666666e-05,217.36186046531
2.64,5.632e-05,217.48093023254,2.9134883720905e-05,2.9134883720905e-05,5.632e-05,217.48093023275
2.65,5.6533333333333e-05,217.59999999999,2.9333333333309e-05,2.9333333333309e-05,5.6533333333333e-05,217.6000000002
2.66,5.6746666666666e-05,217.71906976743,2.9531782945712e-05,2.9531782945712e-05,5.6746666666666e-05,217.71906976764
2.67,5.696e-05,217.83813953487,2.9730232558115e-05,2.9730232558115e-05,5.696e-05,217.83813953508
2.68,5.7173333333333e-05,217.95720930231,2.9928682170518e-05,2.9928682170518e-05,5.7173333333333e-05,217.95720930252
2.69,5.7386666666666e-05,218.07627906975,3.0127131782921e-05,3.0127131782921e-05,5.7386666666666e-05,218.07627906996
2.7,5.76e-05,218.19534883719,3.0325581395324e-05,3.0325581395324e-05,5.76e-05,218.19534883741
2.71,5.7813333333333e-05,218.31441860464,3.0524031007727e-05,3.0524031007727e-05,5.7813333333333e-05,218.31441860485
2.72,5.8026666666666e-05,218.43348837208,3.072248062013e-05,3.072248062013e-05,5.8026666666666e-05,218.43348837229
2.73,5.824e-05,218.55255813952,3.0920930232533e-05,3.0920930232533e-05,5.824e-05,218.55255813973
2.74,5.8453333333333e-05,218.67162790696,3.1119379844936e-05,3.1119379844936e-05,5.8453333333333e-05,218.67162790717
2.75,5.8666666666666e-05,218.7906976744,3.131782945734e-05,3.131782945734e-05,5.8666666666666e-05,218.79069767461
2.76,5.888e-05,218.90976744185,3.1516279069743e-05,3.1516279069743e-05,5.888e-05,218.90976744206
2.77,5.9093333333333e-05,219.02883720929,3.1714728682146e-05,3.1714728682146e-05,5.9093333333333e-05,219.0288372095
2.78,5.9306666666666e-05,219.14790697673,3.1913178294549e-05,3.1913178294549e-05,5.9306666666666e-05,219.14790697694
2.79,5.952e-05,219.26697674417,3.2111627906952e-05,3.2111627906952e-05,5.952e-05,219.26697674438
2.8,5.9733333333333e-05,219.38604651161,3.2310077519355e-05,3.2310077519355e-05,5.9733333333333e-05,219.38604651182
2.81,5.9946666666666e-05,219.50511627905,3.2508527131758e-05,3.2508527131758e-05,5.9946666666666e-05,219.50511627927
2.82,6.016e-05,219.6241860465,3.2706976744161e-05,3.2706976744161e-05,6.016e-05,219.62418604671
2.83,6.0373333333333e-05,219.74325581394,3.2905426356564e-05,3.2905426356564e-05,6.0373333333333e-05,219.74325581415
2.84,6.0586666666666e-05,219.86232558138,3.3103875968967e-05,3.3103875968967e-05,6.0586666666666e-05,219.86232558159
2.85,6.08e-05,219.98139534882,3.3302325581371e-05,3.3302325581371e-05,6.08e-05,219.98139534903
2.86,6.1013333333333e-05,220.10046511626,3.3500775193774e-05,3.3500775193774e-05,6.1013333333333e-05,220.10046511648
2.87,6.1226666666666e-05,219.85665559248,3.3744584717557e-05,3.3744584717557e-05,6.1226666666666e-05,219.85665559287
2.88,6.144e-05,219.61284606867,3.3988394241367e-05,3.3988394241367e-05,6.144e-05,219.61284606906
2.89,6.1653333333333e-05,219.36903654486,3.4232203765176e-05,3.4232203765176e-05,6.1653333333333e-05,219.36903654525
2.9,6.1866666666666e-05,219.12522702105,3.4476013288986e-05,3.4476013288986e-05,6.1866666666666e-05,219.12522702145
2.91,6.208e-05,218.88141749724,3.4719822812795e-05,3.4719822812795e-05,6.208e-05,218.88141749764
2.92,6.2293333333333e-05,218.63760797343,3.4963632336605e-05,3.4963632336605e-05,6.2293333333333e-05,218.63760797383
2.93,6.2506666666666e-05,218.39379844962,3.5207441860414e-05,3.5207441860414e-05,6.2506666666666e-05,218.39379845002
2.94,6.272e-05,218.14998892581,3.5451251384224e-05,3.5451251384224e-05,6.272e-05,218.14998892621
2.95,6.2933333333333e-05,217.906179402,3.5695060908033e-05,3.5695060908033e-05,6.2933333333333e-05,217.9061794024
2.96,6.3146666666666e-05,217.6623698782,3.5938870431842e-05,3.5938870431842e-05,6.3146666666666e-05,217.66236987859
2.97,6.336e-05,217.41856035439,3.6182679955652e-05,3.6182679955652e-05,6.336e-05,217.41856035478
2.98,6.3573333333333e-05,217.17475083058,3.6426489479461e-05,3.6426489479461e-05,6.3573333333333e-05,217.17475083097
2.99,6.3786666666666e-05,216.93094130677,3.6670299003271e-05,3.6670299003271e-05,6.3786666666666e-05,216.93094130716
3,6.4e-05,216.68713178296,3.691410852708e-05,3.691410852708e-05,6.4e-05,216.68713178335
3.01,6.396e-05,216.36713178296,3.691410852708e-05,3.691410852708e-05,6.396e-05,216.36713178336
3.02,6.392e-05,216.04713178296,3.691410852708e-05,3.691410852708e-05,6.392e-05,216.04713178336
3.03,6.388e-05,215.72713178296,3.691410852708e-05,3.691410852708e-05,6.388e-05,215.72713178336
3.04,6.384e-05,215.40713178296,3.691410852708e-05,3.691410852708e-05,6.384e-05,215.40713178336
3.05,6.38e-05,215.08713178296,3.691410852708e-05,3.691410852708e-05,6.38e-05,215.08713178336
3.06,6.376e-05,214.76713178296,3.691410852708e-05,3.691410852708e-05,6.376e-05,214.76713178336
3.07,6.372e-05,214.44713178296,3.691410852708e-05,3.691410852708e-05,6.372e-05,214.44713178336
3.08,6.368e-05,214.12713178296,3.691410852708e-05,3.691410852708e-05,6.368e-05,214.12713178336
3.09,6.364e-05,213.80713178296,3.691410852708e-05,3.691410852708e-05,6.364e-05,213.80713178336
3.1,6.36e-05,213.48713178296,3.691410852708e-05,3.691410852708e-05,6.36e-05,213.48713178336
3.11,6.356e-05,213.16713178296,3.691410852708e-05,3.691410852708e-05,6.356e-05,213.16713178336
3.12,6.352e-05,212.84713178296,3.691410852708e-05,3.691410852708e-05,6.352e-05,212.84713178336
3.13,6.348e-05,212.52713178296,3.691410852708e-05,3.691410852708e-05,6.348e-05,212.52713178336
3.14,6.344e-05,212.20713178296,3.691410852708e-05,3.691410852708e-05,6.344e-05,212.20713178336
3.15,6.34e-05,211.88713178296,3.691410852708e-05,3.691410852708e-05,6.34e-05,211.88713178336
3.16,6.336e-05,211.56713178296,3.691410852708e-05,3.691410852708e-05,6.336e-05,211.56713178336
3.17,6.332e-05,211.24713178296,3.691410852708e-05,3.691410852708e-05,6.332e-05,211.24713178336
3.18,6.328e-05,210.92713178296,3.691410852708e-05,3.691410852708e-05,6.328e-05,210.92713178336
3.19,6.324e-05,210.60713178296,3.691410852708e-05,3.691410852708e-05,6.324e-05,210.60713178336
3.2,6.32e-05,210.28713178296,3.691410852708e-05,3.691410852708e-05,6.32e-05,210.28713178336
3.21,6.316e-05,209.96713178296,3.691410852708e-05,3.691410852708e-05,6.316e-05,209.96713178336
3.22,6.312e-05,209.64713178296,3.691410852708e-05,3.691410852708e-05,6.312e-05,209.64713178336
3.23,6.308e-05,209.32713178296,3.691410852708e-05,3.691410852708e-05,6.308e-05,209.32713178336
3.24,6.304e-05,209.00713178296,3.691410852708e-05,3.691410852708e-05,6.304e-05,209.00713178336
3.25,6.3e-05,208.68713178296,3.691410852708e-05,3.691410852708e-05,6.3e-05,208.68713178336
3.26,6.296e-05,208.36713178296,3.691410852708e-05,3.691410852708e-05,6.296e-05,208.36713178336
3.27,6.292e-05,208.04713178296,3.691410852708e-05,3.691410852708e-05,6.292e-05,208.04713178336
3.28,6.288e-05,207.72713178296,3.691410852708e-05,3.691410852708e-05,6.288e-05,207.72713178336
3.29,6.284e-05,207.40713178296,3.691410852708e-05,3.691410852708e-05,6.284e-05,207.40713178336
3.3,6.28e-05,207.08713178296,3.691410852708e-05,3.691410852708e-05,6.28e-05,207.08713178336
3.31,6.276e-05,206.76713178296,3.691410852708e-05,3.691410852708e-05,6.276e-05,206.76713178336
3.32,6.272e-05,206.44713178296,3.691410852708e-05,3.691410852708e-05,6.272e-05,206.44713178336
3.33,6.268e-05,206.12713178296,3.691410852708e-05,3.691410852708e-05,6.268e-05,206.12713178336
3.34,6.264e-05,205.80713178296,3.691410852708e-05,3.691410852708e-05,6.264e-05,205.80713178336
3.35,6.26e-05,205.48713178296,3.691410852708e-05,3.691410852708e-05,6.26e-05,205.48713178336
3.36,6.256e-05,205.16713178296,3.691410852708e-05,3.691410852708e-05,6.256e-05,205.16713178336
3.37,6.252e-05,204.84713178296,3.691410852708e-05,3.691410852708e-05,6.252e-05,204.84713178336
3.38,6.248e-05,204.52713178296,3.691410852708e-05,3.691410852708e-05,6.248e-05,204.52713178336
3.39,6.244e-05,204.20713178296,3.691410852708e-05,3.691410852708e-05,6.244e-05,204.20713178336
3.4,6.24e-05,203.88713178296,3.691410852708e-05,3.691410852708e-05,6.24e-05,203.88713178336
3.41,6.236e-05,203.56713178296,3.691410852708e-05,3.691410852708e-05,6.236e-05,203.56713178336
3.42,6.232e-05,203.24713178296,3.691410852708e-05,3.691410852708e-05,6.232e-05,203.24713178336
3.43,6.228e-05,202.92713178296,3.691410852708e-05,3.691410852708e-05,6.228e-05,202.92713178336
3.44,6.224e-05,202.60713178296,3.691410852708e-05,3.691410852708e-05,6.224e-05,202.60713178336
3.45,6.22e-05,202.28713178296,3.691410852708e-05,3.691410852708e-05,6.22e-05,202.28713178336
3.46,6.216e-05,201.96713178296,3.691410852708e-05,3.691410852708e-05,6.216e-05,201.96713178336
3.47,6.212e-05,201.64713178296,3.691410852708e-05,3.691410852708e-05,6.212e-05,201.64713178336
3.48,6.208e-05,201.32713178296,3.691410852708e-05,3.691410852708e-05,6.208e-05,201.32713178336
3.49,6.204e-05,201.00713178296,3.691410852708e-05,3.691410852708e-05,6.204e-05,201.00713178336
3.5,6.2e-05,200.68713178296,3.691410852708e-05,3.691410852708e-05,6.2e-05,200.68713178336
3.51,6.196e-05,200.36713178296,3.691410852708e-05,3.691410852708e-05,6.196e-05,200.36713178336
3.52,6.192e-05,200.04713178296,3.691410852708e-05,3.691410852708e-05,6.192e-05,200.04713178336
3.53,6.188e-05,199.72713178296,3.691410852708e-05,3.691410852708e-05,6.188e-05,199.72713178336
3.54,6.184e-05,199.40713178296,3.691410852708e-05,3.691410852708e-05,6.184e-05,199.40713178336
3.55,6.18e-05,199.08713178296,3.691410852708e-05,3.691410852708e-05,6.18e-05,199.08713178336
3.56,6.176e-05,198.76713178296,3.691410852708e-05,3.691410852708e-05,6.176e-05,198.76713178336
3.57,6.172e-05,198.44713178296,3.691410852708e-05,3.691410852708e-05,6.172e-05,198.44713178336
3.58,6.168e-05,198.12713178296,3.691410852708e-05,3.691410852708e-05,6.168e-05,198.12713178336
3.59,6.164e-05,197.80713178296,3.691410852708e-05,3.691410852708e-05,6.164e-05,197.80713178336
3.6,6.16e-05,197.48713178296,3.691410852708e-05,3.691410852708e-05,6.16e-05,197.48713178336
3.61,6.156e-05,197.16713178296,3.691410852708e-05,3.691410852708e-05,6.156e-05,197.16713178336
3.62,6.152e-05,196.84713178296,3.691410852708e-05,3.691410852708e-05,6.152e-05,196.84713178336
3.63,6.148e-05,196.52713178296,3.691410852708e-05,3.691410852708e-05,6.148e-05,196.52713178336
3.64,6.144e-05,196.20713178296,3.691410852708e-05,3.691410852708e-05,6.144e-05,196.20713178336
3.65,6.14e-05,195.88713178296,3.691410852708e-05,3.691410852708e-05,6.14e-05,195.88713178336
3.66,6.136e-05,195.56713178296,3.691410852708e-05,3.691410852708e-05,6.136e-05,195.56713178336
3.67,6.132e-05,195.24713178296,3.691410852708e-05,3.691410852708e-05,6.132e-05,195.24713178336
3.68,6.128e-05,194.92713178296,3.691410852708e-05,3.691410852708e-05,6.128e-05,194.92713178336
3.69,6.124e-05,194.60713178296,3.691410852708e-05,3.691410852708e-05,6.124e-05,194.60713178336
3.7,6.12e-05,194.28713178296,3.691410852708e-05,3.691410852708e-05,6.12e-05,194.28713178336
3.71,6.116e-05,193.96713178296,3.691410852708e-05,3.691410852708e-05,6.116e-05,193.96713178336
3.72,6.112e-05,193.64713178296,3.691410852708e-05,3.691410852708e-05,6.112e-05,193.64713178336
3.73,6.108e-05,193.32713178296,3.691410852708e-05,3.691410852708e-05,6.108e-05,193.32713178336
3.74,6.104e-05,193.00713178296,3.691410852708e-05,3.691410852708e-05,6.104e-05,193.00713178336
3.75,6.1e-05,192.68713178296,3.691410852708e-05,3.691410852708e-05,6.1e-05,192.68713178336
3.76,6.096e-05,192.36713178296,3.691410852708e-05,3.691410852708e-05,6.096e-05,192.36713178336
3.77,6.092e-05,192.04713178296,3.691410852708e-05,3.691410852708e-05,6.092e-05,192.04713178336
3.78,6.088e-05,191.72713178296,3.691410852708e-05,3.691410852708e-05,6.088e-05,191.72713178336
3.79,6.084e-05,191.40713178296,3.691410852708e-05,3.691410852708e-05,6.084e-05,191.40713178336
3.8,6.08e-05,191.08713178296,3.691410852708e-05,3.691410852708e-05,6.08e-05,191.08713178336
3.81,6.076e-05,190.76713178296,3.691410852708e-05,3.691410852708e-05,6.076e-05,190.76713178336
3.82,6.072e-05,190.44713178296,3.691410852708e-05,3.691410852708e-05,6.072e-05,190.44713178336
3.83,6.068e-05,190.12713178296,3.691410852708e-05,3.691410852708e-05,6.068e-05,190.12713178336
3.84,6.064e-05,189.80713178296,3.691410852708e-05,3.691410852708e-05,6.064e-05,189.80713178336
3.85,6.06e-05,189.48713178296,3.691410852708e-05,3.691410852708e-05,6.06e-05,189.48713178336
3.86,6.056e-05,189.16713178296,3.691410852708e-05,3.691410852708e-05,6.056e-05,189.16713178336
3.87,6.052e-05,188.84713178296,3.691410852708e-05,3.691410852708e-05,6.052e-05,188.84713178336
3.88,6.048e-05,188.52713178296,3.691410852708e-05,3.691410852708e-05,6.048e-05,188.52713178336
3.89,6.044e-05,188.20713178296,3.691410852708e-05,3.691410852708e-05,6.044e-05,188.20713178336
3.9,6.04e-05,187.88713178296,3.691410852708e-05,3.691410852708e-05,6.04e-05,187.88713178336
3.91,6.036e-05,187.56713178296,3.691410852708e-05,3.691410852708e-05,6.036e-05,187.56713178336
3.92,6.032e-05,187.24713178296,3.691410852708e-05,3.691410852708e-05,6.032e-05,187.24713178336
3.93,6.028e-05,186.92713178296,3.691410852708e-05,3.691410852708e-05,6.028e-05,186.92713178336
3.94,6.024e-05,186.60713178296,3.691410852708e-05,3.691410852708e-05,6.024e-05,186.60713178336
3.95,6.02e-05,186.28713178296,3.691410852708e-05,3.691410852708e-05,6.02e-05,186.28713178336
3.96,6.016e-05,185.96713178296,3.691410852708e-05,3.691410852708e-05,6.016e-05,185.96713178336
3.97,6.012e-05,185.64713178296,3.691410852708e-05,3.691410852708e-05,6.012e-05,185.64713178336
3.98,6.008e-05,185.32713178296,3.691410852708e-05,3.691410852708e-05,6.008e-05,185.32713178336
3.99,6.004e-05,185.00713178296,3.691410852708e-05,3.691410852708e-05,6.004e-05,185.00713178336
4,6e-05,184.68713178296,3.691410852708e-05,3.691410852708e-05,6e-05,184.68713178336
4.01,5.996e-05,184.36713178296,3.691410852708e-05,3.691410852708e-05,5.996e-05,184.36713178336
4.02,5.992e-05,184.04713178296,3.691410852708e-05,3.691410852708e-05,5.992e-05,184.04713178336
4.03,5.988e-05,183.72713178296,3.691410852708e-05,3.691410852708e-05,5.988e-05,183.72713178336
4.04,5.984e-05,183.40713178296,3.691410852708e-05,3.691410852708e-05,5.984e-05,183.40713178336
4.05,5.98e-05,183.08713178296,3.691410852708e-05,3.691410852708e-05,5.98e-05,183.08713178336
4.06,5.976e-05,182.76713178296,3.691410852708e-05,3.691410852708e-05,5.976e-05,182.76713178336
4.07,5.972e-05,182.44713178296,3.691410852708e-05,3.691410852708e-05,5.972e-05,182.44713178336
4.08,5.968e-05,182.12713178296,3.691410852708e-05,3.691410852708e-05,5.968e-05,182.12713178336
4.09,5.964e-05,181.80713178296,3.691410852708e-05,3.691410852708e-05,5.964e-05,181.80713178336
4.1,5.96e-05,181.48713178296,3.691410852708e-05,3.691410852708e-05,5.96e-05,181.48713178336
4.11,5.956e-05,181.16713178296,3.691410852708e-05,3.691410852708e-05,5.956e-05,181.16713178336
4.12,5.952e-05,180.84713178296,3.691410852708e-05,3.691410852708e-05,5.952e-05,180.84713178336
4.13,5.948e-05,180.52713178296,3.691410852708e-05,3.691410852708e-05,5.948e-05,180.52713178336
4.14,5.944e-05,180.20713178296,3.691410852708e-05,3.691410852708e-05,5.944e-05,180.20713178336
4.15,5.94e-05,179.88713178296,3.691410852708e-05,3.691410852708e-05,5.94e-05,179.88713178336
4.16,5.936e-05,179.56713178296,3.691410852708e-05,3.691410852708e-05,5.936e-05,179.56713178336
4.17,5.932e-05,179.24713178296,3.691410852708e-05,3.691410852708e-05,5.932e-05,179.24713178336
4.18,5.928e-05,178.92713178296,3.691410852708e-05,3.691410852708e-05,5.928e-05,178.92713178336
4.19,5.924e-05,178.60713178296,3.691410852708e-05,3.691410852708e-05,5.924e-05,178.60713178336
4.2,5.92e-05,178.28713178296,3.691410852708e-05,3.691410852708e-05,5.92e-05,178.28713178336
4.21,5.916e-05,177.96713178296,3.691410852708e-05,3.691410852708e-05,5.916e-05,177.96713178336
4.22,5.912e-05,177.64713178296,3.691410852708e-05,3.691410852708e-05,5.912e-05,177.64713178336
4.23,5.908e-05,177.32713178296,3.691410852708e-05,3.691410852708e-05,5.908e-05,177.32713178336
4.24,5.904e-05,177.00713178296,3.691410852708e-05,3.691410852708e-05,5.904e-05,177.00713178336
4.25,5.9e-05,176.68713178296,3.691410852708e-05,3.691410852708e-05,5.9e-05,176.68713178336
4.26,5.896e-05,176.36713178296,3.691410852708e-05,3.691410852708e-05,5.896e-05,176.36713178336
4.27,5.892e-05,176.04713178296,3.691410852708e-05,3.691410852708e-05,5.892e-05,176.04713178336
4.28,5.888e-05,175.72713178296,3.691410852708e-05,3.691410852708e-05,5.888e-05,175.72713178336
4.29,5.884e-05,175.40713178296,3.691410852708e-05,3.691410852708e-05,5.884e-05,175.40713178336
4.3,5.88e-05,175.08713178296,3.691410852708e-05,3.691410852708e-05,5.88e-05,175.08713178336
4.31,5.876e-05,174.76713178296,3.691410852708e-05,3.691410852708e-05,5.876e-05,174.76713178336
4.32,5.872e-05,174.44713178296,3.691410852708e-05,3.691410852708e-05,5.872e-05,174.44713178336
4.33,5.868e-05,174.12713178296,3.691410852708e-05,3.691410852708e-05,5.868e-05,174.12713178336
4.34,5.864e-05,173.80713178296,3.691410852708e-05,3.691410852708e-05,5.864e-05,173.80713178336
4.35,5.86e-05,173.48713178296,3.691410852708e-05,3.691410852708e-05,5.86e-05,173.48713178336
4.36,5.856e-05,173.16713178296,3.691410852708e-05,3.691410852708e-05,5.856e-05,173.16713178336
4.37,5.852e-05,172.84713178296,3.691410852708e-05,3.691410852708e-05,5.852e-05,172.84713178336
4.38,5.848e-05,172.52713178296,3.691410852708e-05,3.691410852708e-05,5.848e-05,172.52713178336
4.39,5.844e-05,172.20713178296,3.691410852708e-05,3.691410852708e-05,5.844e-05,172.20713178336
4.4,5.84e-05,171.88713178296,3.691410852708e-05,3.691410852708e-05,5.84e-05,171.88713178336
4.41,5.836e-05,171.56713178296,3.691410852708e-05,3.691410852708e-05,5.836e-05,171.56713178336
4.42,5.832e-05,171.24713178296,3.691410852708e-05,3.691410852708e-05,5.832e-05,171.24713178336
4.4299999999999,5.828e-05,170.92713178296,3.691410852708e-05,3.691410852708e-05,5.828e-05,170.92713178336
4.4399999999999,5.824e-05,170.60713178296,3.691410852708e-05,3.691410852708e-05,5.824e-05,170.60713178336
4.4499999999999,5.82e-05,170.28713178296,3.691410852708e-05,3.691410852708e-05,5.82e-05,170.28713178336
4.4599999999999,5.816e-05,169.96713178296,3.691410852708e-05,3.691410852708e-05,5.816e-05,169.96713178336
4.4699999999999,5.812e-05,169.64713178296,3.691410852708e-05,3.691410852708e-05,5.812e-05,169.64713178336
4.4799999999999,5.808e-05,169.32713178296,3.691410852708e-05,3.691410852708e-05,5.808e-05,169.32713178336
4.4899999999999,5.804e-05,169.00713178296,3.691410852708e-05,3.691410852708e-05,5.804e-05,169.00713178336
4.4999999999999,5.8e-05,168.68713178296,3.691410852708e-05,3.691410852708e-05,5.8e-05,168.68713178336
4.5099999999999,5.796e-05,168.36713178296,3.691410852708e-05,3.691410852708e-05,5.796e-05,168.36713178336
4.5199999999999,5.792e-05,168.04713178296,3.691410852708e-05,3.691410852708e-05,5.792e-05,168.04713178336
4.5299999999999,5.788e-05,167.72713178296,3.691410852708e-05,3.691410852708e-05,5.788e-05,167.72713178336
4.5399999999999,5.784e-05,167.40713178296,3.691410852708e-05,3.691410852708e-05,5.784e-05,167.40713178336
4.5499999999999,5.78e-05,167.08713178296,3.691410852708e-05,3.691410852708e-05,5.78e-05,167.08713178336
4.5599999999999,5.776e-05,166.76713178296,3.691410852708e-05,3.691410852708e-05,5.776e-05,166.76713178336
4.5699999999999,5.772e-05,166.44713178296,3.691410852708e-05,3.691410852708e-05,5.772e-05,166.44713178336
4.5799999999999,5.768e-05,166.12713178296,3.691410852708e-05,3.691410852708e-05,5.768e-05,166.12713178336
4.5899999999999,5.764e-05,165.80713178296,3.691410852708e-05,3.691410852708e-05,5.764e-05,165.80713178336
4.5999999999999,5.76e-05,165.48713178296,3.691410852708e-05,3.691410852708e-05,5.76e-05,165.48713178336
4.6099999999999,5.756e-05,165.16713178296,3.691410852708e-05,3.691410852708e-05,5.756e-05,165.16713178336
4.6199999999999,5.752e-05,164.84713178296,3.691410852708e-05,3.691410852708e-05,5.752e-05,164.84713178336
4.6299999999999,5.748e-05,164.52713178296,3.691410852708e-05,3.691410852708e-05,5.748e-05,164.52713178336
4.6399999999999,5.744e-05,164.20713178296,3.691410852708e-05,3.691410852708e-05,5.744e-05,164.20713178336
4.6499999999999,5.74e-05,163.88713178296,3.691410852708e-05,3.691410852708e-05,5.74e-05,163.88713178336
4.6599999999999,5.736e-05,163.56713178296,3.691410852708e-05,3.691410852708e-05,5.736e-05,163.56713178336
4.6699999999999,5.732e-05,163.24713178296,3.691410852708e-05,3.691410852708e-05,5.732e-05,163.24713178336
4.6799999999999,5.728e-05,162.92713178296,3.691410852708e-05,3.691410852708e-05,5.728e-05,162.92713178336
4.6899999999999,5.724e-05,162.60713178296,3.691410852708e-05,3.691410852708e-05,5.724e-05,162.60713178336
4.6999999999999,5.72e-05,162.28713178296,3.691410852708e-05,3.691410852708e-05,5.72e-05,162.28713178336
4.7099999999999,5.716e-05,161.96713178296,3.691410852708e-05,3.691410852708e-05,5.716e-05,161.96713178336
4.7199999999999,5.712e-05,161.64713178296,3.691410852708e-05,3.691410852708e-05,5.712e-05,161.64713178336
4.7299999999999,5.708e-05,161.32713178296,3.691410852708e-05,3.691410852708e-05,5.708e-05,161.32713178336
4.7399999999999,5.704e-05,161.00713178296,3.691410852708e-05,3.691410852708e-05,5.704e-05,161.00713178336
4.7499999999999,5.7e-05,160.68713178296,3.691410852708e-05,3.691410852708e-05,5.7e-05,160.68713178336
4.7599999999999,5.696e-05,160.36713178296,3.691410852708e-05,3.691410852708e-05,5.696e-05,160.36713178336
4.7699999999999,5.692e-05,160.04713178296,3.691410852708e-05,3.691410852708e-05,5.692e-05,160.04713178336
4.7799999999999,5.688e-05,159.72713178296,3.691410852708e-05,3.691410852708e-05,5.688e-05,159.72713178336
4.7899999999999,5.684e-05,159.40713178296,3.691410852708e-05,3.691410852708e-05,5.684e-05,159.40713178336
4.7999999999999,5.68e-05,159.08713178296,3.691410852708e-05,3.691410852708e-05,5.68e-05,159.08713178336
4.8099999999999,5.676e-05,158.76713178296,3.691410852708e-05,3.691410852708e-05,5.676e-05,158.76713178336
4.8199999999999,5.672e-05,158.44713178296,3.691410852708e-05,3.691410852708e-05,5.672e-05,158.44713178336
4.8299999999999,5.668e-05,158.12713178296,3.691410852708e-05,3.691410852708e-05,5.668e-05,158.12713178336
4.8399999999999,5.664e-05,157.80713178296,3.691410852708e-05,3.691410852708e-05,5.664e-05,157.80713178336
4.8499999999999,5.66e-05,157.48713178296,3.691410852708e-05,3.691410852708e-05,5.66e-05,157.48713178336
4.8599999999999,5.656e-05,157.16713178296,3.691410852708e-05,3.691410852708e-05,5.656e-05,157.16713178336
4.8699999999999,5.652e-05,156.84713178296,3.691410852708e-05,3.691410852708e-05,5.652e-05,156.84713178336
4.8799999999999,5.648e-05,156.52713178296,3.691410852708e-05,3.691410852708e-05,5.648e-05,156.52713178336
4.8899999999999,5.644e-05,156.20713178296,3.691410852708e-05,3.691410852708e-05,5.644e-05,156.20713178336
4.8999999999999,5.64e-05,155.88713178296,3.691410852708e-05,3.691410852708e-05,5.64e-05,155.88713178336
4.9099999999999,5.636e-05,155.56713178296,3.691410852708e-05,3.691410852708e-05,5.636e-05,155.56713178336
4.9199999999999,5.632e-05,155.24713178296,3.691410852708e-05,3.691410852708e-05,5.632e-05,155.24713178336
4.9299999999999,5.628e-05,154.92713178296,3.691410852708e-05,3.691410852708e-05,5.628e-05,154.92713178336
4.9399999999999,5.624e-05,154.60713178296,3.691410852708e-05,3.691410852708e-05,5.624e-05,154.60713178336
4.9499999999999,5.62e-05,154.28713178296,3.691410852708e-05,3.691410852708e-05,5.62e-05,154.28713178336
4.9599999999999,5.616e-05,153.96713178296,3.691410852708e-05,3.691410852708e-05,5.616e-05,153.96713178336
4.9699999999999,5.612e-05,153.64713178296,3.691410852708e-05,3.691410852708e-05,5.612e-05,153.64713178336
4.9799999999999,5.608e-05,153.32713178296,3.691410852708e-05,3.691410852708e-05,5.608e-05,153.32713178336
4.9899999999999,5.604e-05,153.00713178296,3.691410852708e-05,3.691410852708e-05,5.604e-05,153.00713178336
4.9999999999999,5.6e-05,152.68713178296,3.691410852708e-05,3.691410852708e-05,5.6e-05,152.68713178336
5.0099999999999,5.596e-05,152.36713178296,3.691410852708e-05,3.691410852708e-05,5.596e-05,152.36713178336
5.0199999999999,5.592e-05,152.04713178296,3.691410852708e-05,3.691410852708e-05,5.592e-05,152.04713178336
5.0299999999999,5.588e-05,151.72713178296,3.691410852708e-05,3.691410852708e-05,5.588e-05,151.72713178336
5.0399999999999,5.584e-05,151.40713178296,3.691410852708e-05,3.691410852708e-05,5.584e-05,151.40713178336
5.0499999999999,5.58e-05,151.08713178296,3.691410852708e-05,3.691410852708e-05,5.58e-05,151.08713178336
5.0599999999999,5.576e-05,150.76713178296,3.691410852708e-05,3.691410852708e-05,5.576e-05,150.76713178336
5.0699999999999,5.572e-05,150.44713178296,3.691410852708e-05,3.691410852708e-05,5.572e-05,150.44713178336
5.0799999999999,5.568e-05,150.12713178296,3.691410852708e-05,3.691410852708e-05,5.568e-05,150.12713178336
5.0899999999999,5.564e-05,149.80713178296,3.691410852708e-05,3.691410852708e-05,5.564e-05,149.80713178336
5.0999999999999,5.56e-05,149.48713178296,3.691410852708e-05,3.691410852708e-05,5.56e-05,149.48713178336
5.1099999999999,5.556e-05,149.16713178296,3.691410852708e-05,3.691410852708e-05,5.556e-05,149.16713178336
5.1199999999999,5.552e-05,148.84713178296,3.691410852708e-05,3.691410852708e-05,5.552e-05,148.84713178336
5.1299999999999,5.548e-05,148.52713178296,3.691410852708e-05,3.691410852708e-05,5.548e-05,148.52713178336
5.1399999999999,5.544e-05,148.20713178296,3.691410852708e-05,3.691410852708e-05,5.544e-05,148.20713178336
5.1499999999999,5.54e-05,147.88713178296,3.691410852708e-05,3.691410852708e-05,5.54e-05,147.88713178336
5.1599999999999,5.536e-05,147.56713178296,3.691410852708e-05,3.691410852708e-05,5.536e-05,147.56713178336
5.1699999999999,5.532e-05,147.24713178296,3.691410852708e-05,3.691410852708e-05,5.532e-05,147.24713178336
5.1799999999999,5.528e-05,146.92713178296,3.691410852708e-05,3.691410852708e-05,5.528e-05,146.92713178336
5.1899999999999,5.524e-05,146.60713178296,3.691410852708e-05,3.691410852708e-05,5.524e-05,146.60713178336
5.1999999999999,5.52e-05,146.28713178296,3.691410852708e-05,3.691410852708e-05,5.52e-05,146.28713178336
5.2099999999999,5.516e-05,145.96713178296,3.691410852708e-05,3.691410852708e-05,5.516e-05,145.96713178336
5.2199999999999,5.512e-05,145.64713178296,3.691410852708e-05,3.691410852708e-05,5.512e-05,145.64713178336
5.2299999999999,5.508e-05,145.32713178296,3.691410852708e-05,3.691410852708e-05,5.508e-05,145.32713178336
5.2399999999999,5.504e-05,145.00713178296,3.691410852708e-05,3.691410852708e-05,5.504e-05,145.00713178336
5.2499999999999,5.5e-05,144.68713178296,3.691410852708e-05,3.691410852708e-05,5.5e-05,144.68713178336
5.2599999999999,5.496e-05,144.36713178296,3.691410852708e-05,3.691410852708e-05,5.496e-05,144.36713178336
5.2699999999999,5.492e-05,144.04713178296,3.691410852708e-05,3.691410852708e-05,5.492e-05,144.04713178336
5.2799999999999,5.488e-05,143.72713178296,3.691410852708e-05,3.691410852708e-05,5.488e-05,143.72713178336
5.2899999999999,5.484e-05,143.40713178296,3.691410852708e-05,3.691410852708e-05,5.484e-05,143.40713178336
5.2999999999999,5.48e-05,143.08713178296,3.691410852708e-05,3.691410852708e-05,5.48e-05,143.08713178336
5.3099999999999,5.476e-05,142.76713178296,3.691410852708e-05,3.691410852708e-05,5.476e-05,142.76713178336
5.3199999999999,5.472e-05,142.44713178296,3.691410852708e-05,3.691410852708e-05,5.472e-05,142.44713178336
5.3299999999999,5.468e-05,142.12713178296,3.691410852708e-05,3.691410852708e-05,5.468e-05,142.12713178336
5.3399999999999,5.464e-05,141.80713178296,3.691410852708e-05,3.691410852708e-05,5.464e-05,141.80713178336
5.3499999999999,5.46e-05,141.48713178296,3.691410852708e-05,3.691410852708e-05,5.46e-05,141.48713178336
5.3599999999999,5.456e-05,141.16713178296,3.691410852708e-05,3.691410852708e-05,5.456e-05,141.16713178336
5.3699999999999,5.452e-05,140.84713178296,3.691410852708e-05,3.691410852708e-05,5.452e-05,140.84713178336
5.3799999999999,5.448e-05,140.52713178296,3.691410852708e-05,3.691410852708e-05,5.448e-05,140.52713178336
5.3899999999999,5.444e-05,140.20713178296,3.691410852708e-05,3.691410852708e-05,5.444e-05,140.20713178336
5.3999999999999,5.44e-05,139.88713178296,3.691410852708e-05,3.691410852708e-05,5.44e-05,139.88713178336
5.4099999999999,5.436e-05,139.56713178296,3.691410852708e-05,3.691410852708e-05,5.436e-05,139.56713178336
5.4199999999999,5.432e-05,139.24713178296,3.691410852708e-05,3.691410852708e-05,5.432e-05,139.24713178336
5.4299999999999,5.428e-05,138.92713178296,3.691410852708e-05,3.691410852708e-05,5.428e-05,138.92713178336
5.4399999999999,5.424e-05,138.60713178296,3.691410852708e-05,3.691410852708e-05,5.424e-05,138.60713178336
5.4499999999999,5.42e-05,138.28713178296,3.691410852708e-05,3.691410852708e-05,5.42e-05,138.28713178336
5.4599999999999,5.416e-05,137.96713178296,3.691410852708e-05,3.691410852708e-05,5.416e-05,137.96713178336
5.4699999999999,5.412e-05,137.64713178296,3.691410852708e-05,3.691410852708e-05,5.412e-05,137.64713178336
5.4799999999999,5.408e-05,137.32713178296,3.691410852708e-05,3.691410852708e-05,5.408e-05,137.32713178336
5.4899999999999,5.404e-05,137.00713178296,3.691410852708e-05,3.691410852708e-05,5.404e-05,137.00713178336
5.4999999999999,5.4e-05,136.68713178296,3.691410852708e-05,3.691410852708e-05,5.4e-05,136.68713178336
5.5099999999999,5.396e-05,136.36713178296,3.691410852708e-05,3.691410852708e-05,5.396e-05,136.36713178336
5.5199999999999,5.392e-05,136.04713178296,3.691410852708e-05,3.691410852708e-05,5.392e-05,136.04713178336
5.5299999999999,5.388e-05,135.72713178296,3.691410852708e-05,3.691410852708e-05,5.388e-05,135.72713178336
5.5399999999999,5.384e-05,135.40713178296,3.691410852708e-05,3.691410852708e-05,5.384e-05,135.40713178336
5.5499999999999,5.38e-05,135.08713178296,3.691410852708e-05,3.691410852708e-05,5.38e-05,135.08713178336
5.5599999999999,5.376e-05,134.76713178296,3.691410852708e-05,3.691410852708e-05,5.376e-05,134.76713178336
5.5699999999999,5.372e-05,134.44713178296,3.691410852708e-05,3.691410852708e-05,5.372e-05,134.44713178336
5.5799999999999,5.368e-05,134.12713178296,3.691410852708e-05,3.691410852708e-05,5.368e-05,134.12713178336
5.5899999999999,5.364e-05,133.80713178296,3.691410852708e-05,3.691410852708e-05,5.364e-05,133.80713178336
5.5999999999999,5.36e-05,133.48713178296,3.691410852708e-05,3.691410852708e-05,5.36e-05,133.48713178336
5.6099999999999,5.356e-05,133.16713178296,3.691410852708e-05,3.691410852708e-05,5.356e-05,133.16713178336
5.6199999999999,5.352e-05,132.84713178296,3.691410852708e-05,3.691410852708e-05,5.352e-05,132.84713178336
5.6299999999999,5.348e-05,132.52713178296,3.691410852708e-05,3.691410852708e-05,5.348e-05,132.52713178336
5.6399999999999,5.344e-05,132.20713178296,3.691410852708e-05,3.691410852708e-05,5.344e-05,132.20713178336
5.6499999999999,5.34e-05,131.88713178296,3.691410852708e-05,3.691410852708e-05,5.34e-05,131.88713178336
5.6599999999999,5.336e-05,131.56713178296,3.691410852708e-05,3.691410852708e-05,5.336e-05,131.56713178336
5.6699999999999,5.332e-05,131.24713178296,3.691410852708e-05,3.691410852708e-05,5.332e-05,131.24713178336
5.6799999999999,5.328e-05,130.92713178296,3.691410852708e-05,3.691410852708e-05,5.328e-05,130.92713178336
5.6899999999999,5.324e-05,130.60713178296,3.691410852708e-05,3.691410852708e-05,5.324e-05,130.60713178336
5.6999999999999,5.32e-05,130.28713178296,3.691410852708e-05,3.691410852708e-05,5.32e-05,130.28713178336
5.7099999999999,5.316e-05,129.96713178296,3.691410852708e-05,3.691410852708e-05,5.316e-05,129.96713178336
5.7199999999999,5.312e-05,129.64713178296,3.691410852708e-05,3.691410852708e-05,5.312e-05,129.64713178336
5.7299999999999,5.308e-05,129.32713178296,3.691410852708e-05,3.691410852708e-05,5.308e-05,129.32713178336
5.7399999999999,5.304e-05,129.00713178296,3.691410852708e-05,3.691410852708e-05,5.304e-05,129.00713178336
5.7499999999999,5.3e-05,128.68713178296,3.691410852708e-05,3.691410852708e-05,5.3e-05,128.68713178336
5.7599999999999,5.296e-05,128.36713178296,3.691410852708e-05,3.691410852708e-05,5.296e-05,128.36713178336
5.7699999999999,5.292e-05,128.04713178296,3.691410852708e-05,3.691410852708e-05,5.292e-05,128.04713178336
5.7799999999999,5.288e-05,127.72713178296,3.691410852708e-05,3.691410852708e-05,5.288e-05,127.72713178336
5.7899999999999,5.284e-05,127.40713178296,3.691410852708e-05,3.691410852708e-05,5.284e-05,127.40713178336
5.7999999999999,5.28e-05,127.08713178296,3.691410852708e-05,3.691410852708e-05,5.28e-05,127.08713178336
5.8099999999999,5.276e-05,126.76713178296,3.691410852708e-05,3.691410852708e-05,5.276e-05,126.76713178336
5.8199999999999,5.272e-05,126.44713178296,3.691410852708e-05,3.691410852708e-05,5.272e-05,126.44713178336
5.8299999999999,5.268e-05,126.12713178296,3.691410852708e-05,3.691410852708e-05,5.268e-05,126.12713178336
5.8399999999999,5.264e-05,125.80713178296,3.691410852708e-05,3.691410852708e-05,5.264e-05,125.80713178336
5.8499999999999,5.26e-05,125.48713178296,3.691410852708e-05,3.691410852708e-05,5.26e-05,125.48713178336
5.8599999999999,5.256e-05,125.16713178296,3.691410852708e-05,3.691410852708e-05,5.256e-05,125.16713178336
5.8699999999999,5.252e-05,124.84713178296,3.691410852708e-05,3.691410852708e-05,5.252e-05,124.84713178336
5.8799999999999,5.248e-05,124.52713178296,3.691410852708e-05,3.691410852708e-05,5.248e-05,124.52713178336
5.8899999999999,5.244e-05,124.20713178296,3.691410852708e-05,3.691410852708e-05,5.244e-05,124.20713178336
5.8999999999999,5.24e-05,123.88713178296,3.691410852708e-05,3.691410852708e-05,5.24e-05,123.88713178336
5.9099999999999,5.236e-05,123.56713178296,3.691410852708e-05,3.691410852708e-05,5.236e-05,123.56713178336
5.9199999999999,5.232e-05,123.24713178296,3.691410852708e-05,3.691410852708e-05,5.232e-05,123.24713178336
5.9299999999999,5.228e-05,122.92713178296,3.691410852708e-05,3.691410852708e-05,5.228e-05,122.92713178336
5.9399999999999,5.224e-05,122.60713178296,3.691410852708e-05,3.691410852708e-05,5.224e-05,122.60713178336
5.9499999999999,5.22e-05,122.28713178296,3.691410852708e-05,3.691410852708e-05,5.22e-05,122.28713178336
5.9599999999999,5.216e-05,121.96713178296,3.691410852708e-05,3.691410852708e-05,5.216e-05,121.96713178336
5.9699999999999,5.212e-05,121.64713178296,3.691410852708e-05,3.691410852708e-05,5.212e-05,121.64713178336
5.9799999999999,5.208e-05,121.32713178296,3.691410852708e-05,3.691410852708e-05,5.208e-05,121.32713178336
5.9899999999999,5.204e-05,121.00713178296,3.691410852708e-05,3.691410852708e-05,5.204e-05,121.00713178336
5.9999999999999,5.2e-05,120.68713178296,3.691410852708e-05,3.691410852708e-05,5.2e-05,120.68713178336
6.0099999999999,5.196e-05,120.36713178296,3.691410852708e-05,3.691410852708e-05,5.196e-05,120.36713178336
6.0199999999999,5.192e-05,120.04713178296,3.691410852708e-05,3.691410852708e-05,5.192e-05,120.04713178336
6.0299999999999,5.188e-05,119.72713178296,3.691410852708e-05,3.691410852708e-05,5.188e-05,119.72713178336
6.0399999999999,5.184e-05,119.40713178296,3.691410852708e-05,3.691410852708e-05,5.184e-05,119.40713178336
6.0499999999999,5.18e-05,119.08713178296,3.691410852708e-05,3.691410852708e-05,5.18e-05,119.08713178336
6.0599999999999,5.176e-05,118.76713178296,3.691410852708e-05,3.691410852708e-05,5.176e-05,118.76713178336
6.0699999999999,5.172e-05,118.44713178296,3.691410852708e-05,3.691410852708e-05,5.172e-05,118.44713178336
6.0799999999999,5.168e-05,118.12713178296,3.691410852708e-05,3.691410852708e-05,5.168e-05,118.12713178336
6.0899999999999,5.164e-05,117.80713178296,3.691410852708e-05,3.691410852708e-05,5.164e-05,117.80713178336
6.0999999999999,5.16e-05,117.48713178296,3.691410852708e-05,3.691410852708e-05,5.16e-05,117.48713178336
6.1099999999999,5.156e-05,117.16713178296,3.691410852708e-05,3.691410852708e-05,5.156e-05,117.16713178336
6.1199999999999,5.152e-05,116.84713178296,3.691410852708e-05,3.691410852708e-05,5.152e-05,116.84713178336
6.1299999999999,5.148e-05,116.52713178296,3.691410852708e-05,3.691410852708e-05,5.148e-05,116.52713178336
6.1399999999999,5.144e-05,116.20713178296,3.691410852708e-05,3.691410852708e-05,5.144e-05,116.20713178336
6.1499999999999,5.14e-05,115.88713178296,3.691410852708e-05,3.691410852708e-05,5.14e-05,115.88713178336
6.1599999999999,5.136e-05,115.56713178296,3.691410852708e-05,3.691410852708e-05,5.136e-05,115.56713178336
6.1699999999999,5.132e-05,115.24713178296,3.691410852708e-05,3.691410852708e-05,5.132e-05,115.24713178336
6.1799999999999,5.128e-05,114.92713178296,3.691410852708e-05,3.691410852708e-05,5.128e-05,114.92713178336
6.1899999999999,5.124e-05,114.60713178296,3.691410852708e-05,3.691410852708e-05,5.124e-05,114.60713178336
6.1999999999999,5.12e-05,114.28713178296,3.691410852708e-05,3.691410852708e-05,5.12e-05,114.28713178336
6.2099999999999,5.116e-05,113.96713178296,3.691410852708e-05,3.691410852708e-05,5.116e-05,113.96713178336
6.2199999999999,5.112e-05,113.64713178296,3.691410852708e-05,3.691410852708e-05,5.112e-05,113.64713178336
6.2299999999999,5.108e-05,113.32713178296,3.691410852708e-05,3.691410852708e-05,5.108e-05,113.32713178336
6.2399999999999,5.104e-05,113.00713178296,3.691410852708e-05,3.691410852708e-05,5.104e-05,113.00713178336
6.2499999999999,5.1e-05,112.68713178296,3.691410852708e-05,3.691410852708e-05,5.1e-05,112.68713178336
6.2599999999999,5.096e-05,112.36713178296,3.691410852708e-05,3.691410852708e-05,5.096e-05,112.36713178336
6.2699999999999,5.092e-05,112.04713178296,3.691410852708e-05,3.691410852708e-05,5.092e-05,112.04713178336
6.2799999999999,5.088e-05,111.72713178296,3.691410852708e-05,3.691410852708e-05,5.088e-05,111.72713178336
6.2899999999999,5.084e-05,111.40713178296,3.691410852708e-05,3.691410852708e-05,5.084e-05,111.40713178336
6.2999999999999,5.08e-05,111.08713178296,3.691410852708e-05,3.691410852708e-05,5.08e-05,111.08713178336
6.3099999999999,5.076e-05,110.76713178296,3.691410852708e-05,3.691410852708e-05,5.076e-05,110.76713178336
6.3199999999999,5.072e-05,110.44713178296,3.691410852708e-05,3.691410852708e-05,5.072e-05,110.44713178336
6.3299999999999,5.068e-05,110.12713178296,3.691410852708e-05,3.691410852708e-05,5.068e-05,110.12713178336
6.3399999999999,5.064e-05,109.80713178296,3.691410852708e-05,3.691410852708e-05,5.064e-05,109.80713178336
6.3499999999999,5.06e-05,109.48713178296,3.691410852708e-05,3.691410852708e-05,5.06e-05,109.48713178336
6.3599999999999,5.056e-05,109.16713178296,3.691410852708e-05,3.691410852708e-05,5.056e-05,109.16713178336
6.3699999999999,5.052e-05,108.84713178296,3.691410852708e-05,3.691410852708e-05,5.052e-05,108.84713178336
6.3799999999999,5.048e-05,108.52713178296,3.691410852708e-05,3.691410852708e-05,5.048e-05,108.52713178336
6.3899999999999,5.044e-05,108.20713178296,3.691410852708e-05,3.691410852708e-05,5.044e-05,108.20713178336
6.3999999999999,5.04e-05,107.88713178296,3.691410852708e-05,3.691410852708e-05,5.04e-05,107.88713178336
6.4099999999999,5.036e-05,107.56713178296,3.691410852708e-05,3.691410852708e-05,5.036e-05,107.56713178336
6.4199999999999,5.032e-05,107.24713178296,3.691410852708e-05,3.691410852708e-05,5.032e-05,107.24713178336
6.4299999999999,5.028e-05,106.92713178296,3.691410852708e-05,3.691410852708e-05,5.028e-05,106.92713178336
6.4399999999999,5.024e-05,106.60713178296,3.691410852708e-05,3.691410852708e-05,5.024e-05,106.60713178336
6.4499999999999,5.02e-05,106.28713178296,3.691410852708e-05,3.691410852708e-05,5.02e-05,106.28713178336
6.4599999999999,5.016e-05,105.96713178296,3.691410852708e-05,3.691410852708e-05,5.016e-05,105.96713178336
6.4699999999999,5.012e-05,105.64713178296,3.691410852708e-05,3.691410852708e-05,5.012e-05,105.64713178336
6.4799999999999,5.008e-05,105.32713178296,3.691410852708e-05,3.691410852708e-05,5.008e-05,105.32713178336
6.4899999999999,5.004e-05,105.00713178296,3.691410852708e-05,3.691410852708e-05,5.004e-05,105.00713178336
6.4999999999999,5e-05,104.68713178296,3.691410852708e-05,3.691410852708e-05,5e-05,104.68713178336
6.5099999999999,4.996e-05,104.36713178296,3.691410852708e-05,3.691410852708e-05,4.996e-05,104.36713178336
6.5199999999999,4.992e-05,104.04713178296,3.691410852708e-05,3.691410852708e-05,4.992e-05,104.04713178336
6.5299999999999,4.988e-05,103.72713178296,3.691410852708e-05,3.691410852708e-05,4.988e-05,103.72713178336
6.5399999999999,4.984e-05,103.40713178296,3.691410852708e-05,3.691410852708e-05,4.984e-05,103.40713178336
6.5499999999999,4.98e-05,103.08713178296,3.691410852708e-05,3.691410852708e-05,4.98e-05,103.08713178336
6.5599999999999,4.976e-05,102.76713178296,3.691410852708e-05,3.691410852708e-05,4.976e-05,102.76713178336
6.5699999999999,4.972e-05,102.44713178296,3.691410852708e-05,3.691410852708e-05,4.972e-05,102.44713178336
6.5799999999999,4.968e-05,102.12713178296,3.691410852708e-05,3.691410852708e-05,4.968e-05,102.12713178336
6.5899999999999,4.964e-05,101.80713178296,3.691410852708e-05,3.691410852708e-05,4.964e-05,101.80713178336
6.5999999999999,4.96e-05,101.48713178296,3.691410852708e-05,3.691410852708e-05,4.96e-05,101.48713178336
6.6099999999999,4.956e-05,101.16713178296,3.691410852708e-05,3.691410852708e-05,4.956e-05,101.16713178336
6.6199999999999,4.952e-05,100.84713178296,3.691410852708e-05,3.691410852708e-05,4.952e-05,100.84713178336
6.6299999999999,4.948e-05,100.52713178296,3.691410852708e-05,3.691410852708e-05,4.948e-05,100.52713178336
6.6399999999999,4.944e-05,100.20713178296,3.691410852708e-05,3.691410852708e-05,4.944e-05,100.20713178336
6.6499999999999,4.94e-05,99.887131782964,3.691410852708e-05,3.691410852708e-05,4.94e-05,99.88713178336
6.6599999999999,4.936e-05,99.567131782964,3.691410852708e-05,3.691410852708e-05,4.936e-05,99.56713178336
6.6699999999999,4.932e-05,99.247131782964,3.691410852708e-05,3.691410852708e-05,4.932e-05,99.24713178336
6.6799999999999,4.928e-05,98.927131782964,3.691410852708e-05,3.691410852708e-05,4.928e-05,98.92713178336
6.6899999999999,4.924e-05,98.607131782964,3.691410852708e-05,3.691410852708e-05,4.924e-05,98.60713178336
6.6999999999999,4.92e-05,98.287131782964,3.691410852708e-05,3.691410852708e-05,4.92e-05,98.28713178336
6.7099999999999,4.916e-05,97.967131782964,3.691410852708e-05,3.691410852708e-05,4.916e-05,97.96713178336
6.7199999999999,4.912e-05,97.647131782964,3.691410852708e-05,3.691410852708e-05,4.912e-05,97.64713178336
6.7299999999999,4.908e-05,97.327131782964,3.691410852708e-05,3.691410852708e-05,4.908e-05,97.32713178336
6.7399999999999,4.904e-05,97.007131782964,3.691410852708e-05,3.691410852708e-05,4.904e-05,97.00713178336
6.7499999999999,4.9e-05,96.687131782964,3.691410852708e-05,3.691410852708e-05,4.9e-05,96.68713178336
6.7599999999999,4.896e-05,96.367131782964,3.691410852708e-05,3.691410852708e-05,4.896e-05,96.36713178336
6.7699999999999,4.892e-05,96.047131782964,3.691410852708e-05,3.691410852708e-05,4.892e-05,96.04713178336
6.7799999999999,4.888e-05,95.727131782964,3.691410852708e-05,3.691410852708e-05,4.888e-05,95.72713178336
6.7899999999999,4.884e-05,95.407131782964,3.691410852708e-05,3.691410852708e-05,4.884e-05,95.40713178336
6.7999999999999,4.88e-05,95.087131782964,3.691410852708e-05,3.691410852708e-05,4.88e-05,95.08713178336
6.8099999999999,4.876e-05,94.767131782964,3.691410852708e-05,3.691410852708e-05,4.876e-05,94.76713178336
6.8199999999999,4.872e-05,94.447131782964,3.691410852708e-05,3.691410852708e-05,4.872e-05,94.44713178336
6.8299999999999,4.868e-05,94.127131782964,3.691410852708e-05,3.691410852708e-05,4.868e-05,94.12713178336
6.8399999999999,4.864e-05,93.807131782964,3.691410852708e-05,3.691410852708e-05,4.864e-05,93.80713178336
6.8499999999999,4.86e-05,93.487131782964,3.691410852708e-05,3.691410852708e-05,4.86e-05,93.48713178336
6.8599999999999,4.856e-05,93.167131782964,3.691410852708e-05,3.691410852708e-05,4.856e-05,93.16713178336
6.8699999999999,4.852e-05,92.847131782964,3.691410852708e-05,3.691410852708e-05,4.852e-05,92.84713178336
6.8799999999999,4.848e-05,92.527131782964,3.691410852708e-05,3.691410852708e-05,4.848e-05,92.52713178336
6.8899999999999,4.844e-05,92.207131782964,3.691410852708e-05,3.691410852708e-05,4.844e-05,92.20713178336
6.8999999999999,4.84e-05,91.887131782964,3.691410852708e-05,3.691410852708e-05,4.84e-05,91.88713178336
6.9099999999999,4.836e-05,91.567131782964,3.691410852708e-05,3.691410852708e-05,4.836e-05,91.56713178336
6.9199999999999,4.832e-05,91.247131782964,3.691410852708e-05,3.691410852708e-05,4.832e-05,91.247131783361
6.9299999999999,4.828e-05,90.927131782964,3.691410852708e-05,3.691410852708e-05,4.828e-05,90.92713178336
6.9399999999999,4.824e-05,90.607131782964,3.691410852708e-05,3.691410852708e-05,4.824e-05,90.60713178336
6.9499999999999,4.82e-05,90.287131782964,3.691410852708e-05,3.691410852708e-05,4.82e-05,90.28713178336
6.9599999999999,4.816e-05,89.967131782964,3.691410852708e-05,3.691410852708e-05,4.816e-05,89.96713178336
6.9699999999999,4.812e-05,89.647131782964,3.691410852708e-05,3.691410852708e-05,4.812e-05,89.64713178336
6.9799999999999,4.808e-05,89.327131782964,3.691410852708e-05,3.691410852708e-05,4.808e-05,89.32713178336
6.9899999999999,4.804e-05,89.007131782964,3.691410852708e-05,3.691410852708e-05,4.804e-05,89.00713178336
6.9999999999999,4.8e-05,88.687131782964,3.691410852708e-05,3.691410852708e-05,4.8e-05,88.68713178336
7.0099999999999,4.796e-05,88.367131782964,3.691410852708e-05,3.691410852708e-05,4.796e-05,88.36713178336
7.0199999999999,4.792e-05,88.047131782964,3.691410852708e-05,3.691410852708e-05,4.792e-05,88.04713178336
7.0299999999999,4.788e-05,87.727131782964,3.691410852708e-05,3.691410852708e-05,4.788e-05,87.72713178336
7.0399999999999,4.784e-05,87.407131782964,3.691410852708e-05,3.691410852708e-05,4.784e-05,87.40713178336
7.0499999999999,4.78e-05,87.087131782964,3.691410852708e-05,3.691410852708e-05,4.78e-05,87.087131783361
7.0599999999999,4.776e-05,86.767131782964,3.691410852708e-05,3.691410852708e-05,4.776e-05,86.767131783361
7.0699999999999,4.772e-05,86.447131782964,3.691410852708e-05,3.691410852708e-05,4.772e-05,86.447131783361
7.0799999999999,4.768e-05,86.127131782964,3.691410852708e-05,3.691410852708e-05,4.768e-05,86.127131783361
7.0899999999999,4.764e-05,85.807131782964,3.691410852708e-05,3.691410852708e-05,4.764e-05,85.807131783361
7.0999999999999,4.76e-05,85.487131782964,3.691410852708e-05,3.691410852708e-05,4.76e-05,85.48713178336
7.1099999999999,4.756e-05,85.167131782964,3.691410852708e-05,3.691410852708e-05,4.756e-05,85.167131783361
7.1199999999999,4.752e-05,84.847131782964,3.691410852708e-05,3.691410852708e-05,4.752e-05,84.847131783361
7.1299999999999,4.748e-05,84.527131782964,3.691410852708e-05,3.691410852708e-05,4.748e-05,84.527131783361
7.1399999999999,4.744e-05,84.207131782964,3.691410852708e-05,3.691410852708e-05,4.744e-05,84.207131783361
7.1499999999999,4.74e-05,83.887131782964,3.691410852708e-05,3.691410852708e-05,4.74e-05,83.887131783361
7.1599999999999,4.736e-05,83.567131782964,3.691410852708e-05,3.691410852708e-05,4.736e-05,83.567131783361
7.1699999999999,4.732e-05,83.247131782964,3.691410852708e-05,3.691410852708e-05,4.732e-05,83.247131783361
7.1799999999999,4.728e-05,82.927131782964,3.691410852708e-05,3.691410852708e-05,4.728e-05,82.927131783361
7.1899999999999,4.724e-05,82.607131782964,3.691410852708e-05,3.691410852708e-05,4.724e-05,82.607131783361
7.1999999999999,4.72e-05,82.287131782964,3.691410852708e-05,3.691410852708e-05,4.72e-05,82.287131783361
7.2099999999999,4.716e-05,81.967131782964,3.691410852708e-05,3.691410852708e-05,4.716e-05,81.967131783361
7.2199999999999,4.712e-05,81.647131782964,3.691410852708e-05,3.691410852708e-05,4.712e-05,81.647131783361
7.2299999999999,4.708e-05,81.327131782964,3.691410852708e-05,3.691410852708e-05,4.708e-05,81.327131783361
7.2399999999999,4.704e-05,81.007131782964,3.691410852708e-05,3.691410852708e-05,4.704e-05,81.007131783361
7.2499999999999,4.7e-05,80.687131782964,3.691410852708e-05,3.691410852708e-05,4.7e-05,80.687131783361
7.2599999999999,4.696e-05,80.367131782964,3.691410852708e-05,3.691410852708e-05,4.696e-05,80.367131783361
7.2699999999999,4.692e-05,80.047131782964,3.691410852708e-05,3.691410852708e-05,4.692e-05,80.047131783361
7.2799999999999,4.688e-05,79.727131782964,3.691410852708e-05,3.691410852708e-05,4.688e-05,79.727131783361
7.2899999999999,4.684e-05,79.407131782964,3.691410852708e-05,3.691410852708e-05,4.684e-05,79.407131783361
7.2999999999999,4.68e-05,79.087131782964,3.691410852708e-05,3.691410852708e-05,4.68e-05,79.087131783361
7.3099999999999,4.676e-05,78.767131782964,3.691410852708e-05,3.691410852708e-05,4.676e-05,78.767131783361
7.3199999999999,4.672e-05,78.447131782964,3.691410852708e-05,3.691410852708e-05,4.672e-05,78.447131783361
7.3299999999999,4.668e-05,78.127131782965,3.691410852708e-05,3.691410852708e-05,4.668e-05,78.127131783361
7.3399999999999,4.664e-05,77.807131782964,3.691410852708e-05,3.691410852708e-05,4.664e-05,77.807131783361
7.3499999999999,4.66e-05,77.487131782964,3.691410852708e-05,3.691410852708e-05,4.66e-05,77.487131783361
7.3599999999999,4.656e-05,77.167131782964,3.691410852708e-05,3.691410852708e-05,4.656e-05,77.167131783361
7.3699999999999,4.652e-05,76.847131782965,3.691410852708e-05,3.691410852708e-05,4.652e-05,76.847131783361
7.3799999999999,4.648e-05,76.527131782964,3.691410852708e-05,3.691410852708e-05,4.648e-05,76.527131783361
7.3899999999999,4.644e-05,76.207131782965,3.691410852708e-05,3.691410852708e-05,4.644e-05,76.207131783361
7.3999999999999,4.64e-05,75.887131782965,3.691410852708e-05,3.691410852708e-05,4.64e-05,75.887131783361
7.4099999999999,4.636e-05,75.567131782965,3.691410852708e-05,3.691410852708e-05,4.636e-05,75.567131783361
7.4199999999999,4.632e-05,75.247131782965,3.691410852708e-05,3.691410852708e-05,4.632e-05,75.247131783361
7.4299999999999,4.628e-05,74.927131782965,3.691410852708e-05,3.691410852708e-05,4.628e-05,74.927131783361
7.4399999999999,4.624e-05,74.607131782965,3.691410852708e-05,3.691410852708e-05,4.624e-05,74.607131783361
7.4499999999999,4.62e-05,74.287131782965,3.691410852708e-05,3.691410852708e-05,4.62e-05,74.287131783361
7.4599999999999,4.616e-05,73.967131782965,3.691410852708e-05,3.691410852708e-05,4.616e-05,73.967131783361
7.4699999999999,4.612e-05,73.647131782965,3.691410852708e-05,3.691410852708e-05,4.612e-05,73.647131783361
7.4799999999999,4.608e-05,73.327131782965,3.691410852708e-05,3.691410852708e-05,4.608e-05,73.327131783361
7.4899999999999,4.604e-05,73.007131782965,3.691410852708e-05,3.691410852708e-05,4.604e-05,73.007131783361
7.4999999999999,4.6e-05,72.687131782965,3.691410852708e-05,3.691410852708e-05,4.6e-05,72.687131783361
7.5099999999999,4.596e-05,72.367131782965,3.691410852708e-05,3.691410852708e-05,4.596e-05,72.367131783361
7.5199999999999,4.592e-05,72.047131782965,3.691410852708e-05,3.691410852708e-05,4.592e-05,72.047131783361
7.5299999999999,4.588e-05,71.727131782965,3.691410852708e-05,3.691410852708e-05,4.588e-05,71.727131783361
7.5399999999999,4.584e-05,71.407131782965,3.691410852708e-05,3.691410852708e-05,4.584e-05,71.407131783361
7.5499999999999,4.58e-05,71.087131782965,3.691410852708e-05,3.691410852708e-05,4.58e-05,71.087131783361
7.5599999999999,4.576e-05,70.767131782965,3.691410852708e-05,3.691410852708e-05,4.576e-05,70.767131783361
7.5699999999999,4.572e-05,70.447131782965,3.691410852708e-05,3.691410852708e-05,4.572e-05,70.447131783361
7.5799999999999,4.568e-05,70.127131782965,3.691410852708e-05,3.691410852708e-05,4.568e-05,70.127131783361
7.5899999999999,4.564e-05,69.807131782965,3.691410852708e-05,3.691410852708e-05,4.564e-05,69.807131783361
7.5999999999999,4.56e-05,69.487131782965,3.691410852708e-05,3.691410852708e-05,4.56e-05,69.487131783361
7.6099999999999,4.556e-05,69.167131782965,3.691410852708e-05,3.691410852708e-05,4.556e-05,69.167131783361
7.6199999999999,4.552e-05,68.847131782965,3.691410852708e-05,3.691410852708e-05,4.552e-05,68.847131783361
7.6299999999999,4.548e-05,68.527131782965,3.691410852708e-05,3.691410852708e-05,4.548e-05,68.527131783361
7.6399999999999,4.544e-05,68.207131782965,3.691410852708e-05,3.691410852708e-05,4.544e-05,68.207131783361
7.6499999999999,4.54e-05,67.887131782965,3.691410852708e-05,3.691410852708e-05,4.54e-05,67.887131783361
7.6599999999999,4.536e-05,67.567131782965,3.691410852708e-05,3.691410852708e-05,4.536e-05,67.567131783361
7.6699999999999,4.532e-05,67.247131782965,3.691410852708e-05,3.691410852708e-05,4.532e-05,67.247131783361
7.6799999999999,4.528e-05,66.927131782965,3.691410852708e-05,3.691410852708e-05,4.528e-05,66.927131783361
7.6899999999999,4.524e-05,66.607131782965,3.691410852708e-05,3.691410852708e-05,4.524e-05,66.607131783361
7.6999999999999,4.52e-05,66.287131782965,3.691410852708e-05,3.691410852708e-05,4.52e-05,66.287131783361
7.7099999999999,4.516e-05,65.967131782965,3.691410852708e-05,3.691410852708e-05,4.516e-05,65.967131783361
7.7199999999999,4.512e-05,65.647131782965,3.691410852708e-05,3.691410852708e-05,4.512e-05,65.647131783361
7.7299999999999,4.508e-05,65.327131782965,3.691410852708e-05,3.691410852708e-05,4.508e-05,65.327131783361
7.7399999999999,4.504e-05,65.007131782965,3.691410852708e-05,3.691410852708e-05,4.504e-05,65.007131783361
7.7499999999999,4.5e-05,64.687131782965,3.691410852708e-05,3.691410852708e-05,4.5e-05,64.687131783361
7.7599999999999,4.496e-05,64.367131782965,3.691410852708e-05,3.691410852708e-05,4.496e-05,64.367131783361
7.7699999999999,4.492e-05,64.047131782965,3.691410852708e-05,3.691410852708e-05,4.492e-05,64.047131783361
7.7799999999999,4.488e-05,63.727131782965,3.691410852708e-05,3.691410852708e-05,4.488e-05,63.727131783361
7.7899999999999,4.484e-05,63.407131782965,3.691410852708e-05,3.691410852708e-05,4.484e-05,63.407131783361
7.7999999999999,4.48e-05,63.087131782965,3.691410852708e-05,3.691410852708e-05,4.48e-05,63.087131783361
7.8099999999999,4.476e-05,62.767131782965,3.691410852708e-05,3.691410852708e-05,4.476e-05,62.767131783361
7.8199999999999,4.472e-05,62.447131782965,3.691410852708e-05,3.691410852708e-05,4.472e-05,62.447131783361
7.8299999999999,4.468e-05,62.127131782965,3.691410852708e-05,3.691410852708e-05,4.468e-05,62.127131783361
7.8399999999999,4.464e-05,61.807131782965,3.691410852708e-05,3.691410852708e-05,4.464e-05,61.807131783361
7.8499999999999,4.46e-05,61.487131782965,3.691410852708e-05,3.691410852708e-05,4.46e-05,61.487131783361
7.8599999999999,4.456e-05,61.167131782965,3.691410852708e-05,3.691410852708e-05,4.4560000000001e-05,61.167131783361
7.8699999999999,4.452e-05,60.847131782965,3.691410852708e-05,3.691410852708e-05,4.452e-05,60.847131783361
7.8799999999999,4.448e-05,60.527131782965,3.691410852708e-05,3.691410852708e-05,4.448e-05,60.527131783361
7.8899999999999,4.4440000000001e-05,60.207131782965,3.691410852708e-05,3.691410852708e-05,4.4440000000001e-05,60.207131783361
7.8999999999999,4.44e-05,59.887131782965,3.691410852708e-05,3.691410852708e-05,4.44e-05,59.887131783361
7.9099999999999,4.4360000000001e-05,59.567131782965,3.691410852708e-05,3.691410852708e-05,4.4360000000001e-05,59.567131783361
7.9199999999999,4.432e-05,59.247131782965,3.691410852708e-05,3.691410852708e-05,4.432e-05,59.247131783361
7.9299999999999,4.4280000000001e-05,58.927131782965,3.691410852708e-05,3.691410852708e-05,4.428e-05,58.927131783361
7.9399999999999,4.424e-05,58.607131782965,3.691410852708e-05,3.691410852708e-05,4.4240000000001e-05,58.607131783361
7.9499999999999,4.4200000000001e-05,58.287131782965,3.691410852708e-05,3.691410852708e-05,4.4200000000001e-05,58.287131783361
7.9599999999999,4.416e-05,57.967131782965,3.691410852708e-05,3.691410852708e-05,4.4160000000001e-05,57.967131783361
7.9699999999999,4.4120000000001e-05,57.647131782965,3.691410852708e-05,3.691410852708e-05,4.4120000000001e-05,57.647131783361
7.9799999999999,4.408e-05,57.327131782965,3.691410852708e-05,3.691410852708e-05,4.408e-05,57.327131783361
7.9899999999999,4.4040000000001e-05,57.007131782965,3.691410852708e-05,3.691410852708e-05,4.4040000000001e-05,57.007131783361
7.9999999999999,4.4000000000001e-05,56.687131782965,3.691410852708e-05,3.691410852708e-05,4.4000000000001e-05,56.687131783361
8.0099999999999,4.3960000000001e-05,56.367131782965,3.691410852708e-05,3.691410852708e-05,4.3960000000001e-05,56.367131783361
8.0199999999999,4.3920000000001e-05,56.047131782965,3.691410852708e-05,3.691410852708e-05,4.3920000000001e-05,56.047131783361
8.0299999999999,4.3880000000001e-05,55.727131782965,3.691410852708e-05,3.691410852708e-05,4.3880000000001e-05,55.727131783361
8.0399999999999,4.3840000000001e-05,55.407131782965,3.691410852708e-05,3.691410852708e-05,4.3840000000001e-05,55.407131783361
8.0499999999999,4.3800000000001e-05,55.087131782965,3.691410852708e-05,3.691410852708e-05,4.3800000000001e-05,55.087131783361
8.0599999999999,4.3760000000001e-05,54.767131782965,3.691410852708e-05,3.691410852708e-05,4.3760000000001e-05,54.767131783361
8.0699999999999,4.3720000000001e-05,54.447131782965,3.691410852708e-05,3.691410852708e-05,4.3720000000001e-05,54.447131783361
8.0799999999999,4.3680000000001e-05,54.127131782965,3.691410852708e-05,3.691410852708e-05,4.3680000000001e-05,54.127131783361
8.0899999999999,4.3640000000001e-05,53.807131782965,3.691410852708e-05,3.691410852708e-05,4.3640000000001e-05,53.807131783361
8.0999999999999,4.3600000000001e-05,53.487131782965,3.691410852708e-05,3.691410852708e-05,4.3600000000001e-05,53.487131783361
8.1099999999999,4.3560000000001e-05,53.167131782965,3.691410852708e-05,3.691410852708e-05,4.3560000000001e-05,53.167131783361
8.1199999999999,4.3520000000001e-05,52.847131782965,3.691410852708e-05,3.691410852708e-05,4.3520000000001e-05,52.847131783361
8.1299999999999,4.3480000000001e-05,52.527131782965,3.691410852708e-05,3.691410852708e-05,4.3480000000001e-05,52.527131783361
8.1399999999999,4.3440000000001e-05,52.207131782965,3.691410852708e-05,3.691410852708e-05,4.3440000000001e-05,52.207131783361
8.1499999999999,4.3400000000001e-05,51.887131782965,3.691410852708e-05,3.691410852708e-05,4.3400000000001e-05,51.887131783361
8.1599999999999,4.3360000000001e-05,51.567131782965,3.691410852708e-05,3.691410852708e-05,4.3360000000001e-05,51.567131783361
8.1699999999999,4.3320000000001e-05,51.247131782965,3.691410852708e-05,3.691410852708e-05,4.3320000000001e-05,51.247131783361
8.1799999999999,4.3280000000001e-05,50.927131782965,3.691410852708e-05,3.691410852708e-05,4.3280000000001e-05,50.927131783361
8.1899999999999,4.3240000000001e-05,50.607131782965,3.691410852708e-05,3.691410852708e-05,4.3240000000001e-05,50.607131783361
8.1999999999999,4.3200000000001e-05,50.287131782965,3.691410852708e-05,3.691410852708e-05,4.3200000000001e-05,50.287131783361
8.2099999999999,4.3160000000001e-05,49.967131782965,3.691410852708e-05,3.691410852708e-05,4.3160000000001e-05,49.967131783361
8.2199999999999,4.3120000000001e-05,49.647131782965,3.691410852708e-05,3.691410852708e-05,4.3120000000001e-05,49.647131783361
8.2299999999999,4.3080000000001e-05,49.327131782965,3.691410852708e-05,3.691410852708e-05,4.3080000000001e-05,49.327131783361
8.2399999999999,4.3040000000001e-05,49.007131782965,3.691410852708e-05,3.691410852708e-05,4.3040000000001e-05,49.007131783361
8.2499999999999,4.3000000000001e-05,48.687131782965,3.691410852708e-05,3.691410852708e-05,4.3000000000001e-05,48.687131783361
8.2599999999999,4.2960000000001e-05,48.367131782965,3.691410852708e-05,3.691410852708e-05,4.2960000000001e-05,48.367131783361
8.2699999999999,4.2920000000001e-05,48.047131782965,3.691410852708e-05,3.691410852708e-05,4.2920000000001e-05,48.047131783361
8.2799999999999,4.2880000000001e-05,47.727131782965,3.691410852708e-05,3.691410852708e-05,4.2880000000001e-05,47.727131783361
8.2899999999999,4.2840000000001e-05,47.407131782965,3.691410852708e-05,3.691410852708e-05,4.2840000000001e-05,47.407131783361
8.2999999999999,4.2800000000001e-05,47.087131782965,3.691410852708e-05,3.691410852708e-05,4.2800000000001e-05,47.087131783361
8.3099999999999,4.2760000000001e-05,46.767131782965,3.691410852708e-05,3.691410852708e-05,4.2760000000001e-05,46.767131783361
8.3199999999999,4.2720000000001e-05,46.447131782965,3.691410852708e-05,3.691410852708e-05,4.2720000000001e-05,46.447131783361
8.3299999999999,4.2680000000001e-05,46.127131782965,3.691410852708e-05,3.691410852708e-05,4.2680000000001e-05,46.127131783361
8.3399999999999,4.2640000000001e-05,45.807131782965,3.691410852708e-05,3.691410852708e-05,4.2640000000001e-05,45.807131783361
8.3499999999999,4.2600000000001e-05,45.487131782965,3.691410852708e-05,3.691410852708e-05,4.2600000000001e-05,45.487131783361
8.3599999999999,4.2560000000001e-05,45.167131782965,3.691410852708e-05,3.691410852708e-05,4.2560000000001e-05,45.167131783361
8.3699999999999,4.2520000000001e-05,44.847131782965,3.691410852708e-05,3.691410852708e-05,4.2520000000001e-05,44.847131783361
8.3799999999999,4.2480000000001e-05,44.527131782965,3.691410852708e-05,3.691410852708e-05,4.2480000000001e-05,44.527131783361
8.3899999999999,4.2440000000001e-05,44.207131782965,3.691410852708e-05,3.691410852708e-05,4.2440000000001e-05,44.207131783361
8.3999999999999,4.2400000000001e-05,43.887131782965,3.691410852708e-05,3.691410852708e-05,4.2400000000001e-05,43.887131783361
8.4099999999999,4.2360000000001e-05,43.567131782965,3.691410852708e-05,3.691410852708e-05,4.2360000000001e-05,43.567131783361
8.4199999999999,4.2320000000001e-05,43.247131782965,3.691410852708e-05,3.691410852708e-05,4.2320000000001e-05,43.247131783361
8.4299999999999,4.2280000000001e-05,42.927131782965,3.691410852708e-05,3.691410852708e-05,4.2280000000001e-05,42.927131783361
8.4399999999999,4.2240000000001e-05,42.607131782965,3.691410852708e-05,3.691410852708e-05,4.2240000000001e-05,42.607131783361
8.4499999999999,4.2200000000001e-05,42.287131782965,3.691410852708e-05,3.691410852708e-05,4.2200000000001e-05,42.287131783362
8.4599999999999,4.2160000000001e-05,41.967131782965,3.691410852708e-05,3.691410852708e-05,4.2160000000001e-05,41.967131783361
8.4699999999999,4.2120000000001e-05,41.647131782965,3.691410852708e-05,3.691410852708e-05,4.2120000000001e-05,41.647131783362
8.4799999999999,4.2080000000001e-05,41.327131782965,3.691410852708e-05,3.691410852708e-05,4.2080000000001e-05,41.327131783361
8.4899999999999,4.2040000000001e-05,41.007131782965,3.691410852708e-05,3.691410852708e-05,4.2040000000001e-05,41.007131783362
8.4999999999999,4.2000000000001e-05,40.687131782965,3.691410852708e-05,3.691410852708e-05,4.2000000000001e-05,40.687131783361
8.5099999999999,4.1960000000001e-05,40.367131782965,3.691410852708e-05,3.691410852708e-05,4.1960000000001e-05,40.367131783362
8.5199999999999,4.1920000000001e-05,40.047131782965,3.691410852708e-05,3.691410852708e-05,4.1920000000001e-05,40.047131783361
8.5299999999999,4.1880000000001e-05,39.727131782965,3.691410852708e-05,3.691410852708e-05,4.1880000000001e-05,39.727131783362
8.5399999999999,4.1840000000001e-05,39.407131782965,3.691410852708e-05,3.691410852708e-05,4.1840000000001e-05,39.407131783361
8.5499999999999,4.1800000000001e-05,39.087131782965,3.691410852708e-05,3.691410852708e-05,4.1800000000001e-05,39.087131783362
8.5599999999999,4.1760000000001e-05,38.767131782965,3.691410852708e-05,3.691410852708e-05,4.1760000000001e-05,38.767131783361
8.5699999999999,4.1720000000001e-05,38.447131782965,3.691410852708e-05,3.691410852708e-05,4.1720000000001e-05,38.447131783362
8.5799999999999,4.1680000000001e-05,38.127131782965,3.691410852708e-05,3.691410852708e-05,4.1680000000001e-05,38.127131783362
8.5899999999999,4.1640000000001e-05,37.807131782965,3.691410852708e-05,3.691410852708e-05,4.1640000000001e-05,37.807131783362
8.5999999999999,4.1600000000001e-05,37.487131782965,3.691410852708e-05,3.691410852708e-05,4.1600000000001e-05,37.487131783362
8.6099999999999,4.1560000000001e-05,37.167131782965,3.691410852708e-05,3.691410852708e-05,4.1560000000001e-05,37.167131783362
8.6199999999999,4.1520000000001e-05,36.847131782965,3.691410852708e-05,3.691410852708e-05,4.1520000000001e-05,36.847131783362
8.6299999999999,4.1480000000001e-05,36.527131782965,3.691410852708e-05,3.691410852708e-05,4.1480000000001e-05,36.527131783362
8.6399999999999,4.1440000000001e-05,36.207131782965,3.691410852708e-05,3.691410852708e-05,4.1440000000001e-05,36.207131783362
8.6499999999999,4.1400000000001e-05,35.887131782965,3.691410852708e-05,3.691410852708e-05,4.1400000000001e-05,35.887131783362
8.6599999999999,4.1360000000001e-05,35.567131782965,3.691410852708e-05,3.691410852708e-05,4.1360000000001e-05,35.567131783362
8.6699999999999,4.1320000000001e-05,35.247131782965,3.691410852708e-05,3.691410852708e-05,4.1320000000001e-05,35.247131783362
8.6799999999999,4.1280000000001e-05,34.927131782965,3.691410852708e-05,3.691410852708e-05,4.1280000000001e-05,34.927131783362
8.6899999999999,4.1240000000001e-05,34.607131782965,3.691410852708e-05,3.691410852708e-05,4.1240000000001e-05,34.607131783362
8.6999999999999,4.1200000000001e-05,34.287131782965,3.691410852708e-05,3.691410852708e-05,4.1200000000001e-05,34.287131783362
8.7099999999999,4.1160000000001e-05,33.967131782965,3.691410852708e-05,3.691410852708e-05,4.1160000000001e-05,33.967131783362
8.7199999999999,4.1120000000001e-05,33.647131782965,3.691410852708e-05,3.691410852708e-05,4.1120000000001e-05,33.647131783362
8.7299999999999,4.1080000000001e-05,33.327131782965,3.691410852708e-05,3.691410852708e-05,4.1080000000001e-05,33.327131783362
8.7399999999999,4.1040000000001e-05,33.007131782965,3.691410852708e-05,3.691410852708e-05,4.1040000000001e-05,33.007131783362
8.7499999999999,4.1000000000001e-05,32.687131782965,3.691410852708e-05,3.691410852708e-05,4.1000000000001e-05,32.687131783362
8.7599999999999,4.0960000000001e-05,32.367131782965,3.691410852708e-05,3.691410852708e-05,4.0960000000001e-05,32.367131783362
8.7699999999999,4.0920000000001e-05,32.047131782965,3.691410852708e-05,3.691410852708e-05,4.0920000000001e-05,32.047131783362
8.7799999999999,4.0880000000001e-05,31.727131782966,3.691410852708e-05,3.691410852708e-05,4.0880000000001e-05,31.727131783362
8.7899999999999,4.0840000000001e-05,31.407131782966,3.691410852708e-05,3.691410852708e-05,4.0840000000001e-05,31.407131783362
8.7999999999999,4.0800000000001e-05,31.087131782965,3.691410852708e-05,3.691410852708e-05,4.0800000000001e-05,31.087131783362
8.8099999999999,4.0760000000001e-05,30.767131782965,3.691410852708e-05,3.691410852708e-05,4.0760000000001e-05,30.767131783362
8.8199999999999,4.0720000000001e-05,30.447131782965,3.691410852708e-05,3.691410852708e-05,4.0720000000001e-05,30.447131783362
8.8299999999999,4.0680000000001e-05,30.127131782965,3.691410852708e-05,3.691410852708e-05,4.0680000000001e-05,30.127131783362
8.8399999999999,4.0640000000001e-05,29.807131782965,3.691410852708e-05,3.691410852708e-05,4.0640000000001e-05,29.807131783362
8.8499999999999,4.0600000000001e-05,29.487131782966,3.691410852708e-05,3.691410852708e-05,4.0600000000001e-05,29.487131783362
8.8599999999999,4.0560000000001e-05,29.167131782966,3.691410852708e-05,3.691410852708e-05,4.0560000000001e-05,29.167131783362
8.8699999999999,4.0520000000001e-05,28.847131782966,3.691410852708e-05,3.691410852708e-05,4.0520000000001e-05,28.847131783362
8.8799999999999,4.0480000000001e-05,28.527131782966,3.691410852708e-05,3.691410852708e-05,4.0480000000001e-05,28.527131783362
8.8899999999999,4.0440000000001e-05,28.207131782966,3.691410852708e-05,3.691410852708e-05,4.0440000000001e-05,28.207131783362
8.8999999999999,4.0400000000001e-05,27.887131782966,3.691410852708e-05,3.691410852708e-05,4.0400000000001e-05,27.887131783362
8.9099999999999,4.0360000000001e-05,27.567131782966,3.691410852708e-05,3.691410852708e-05,4.0360000000001e-05,27.567131783362
8.9199999999999,4.0320000000001e-05,27.247131782966,3.691410852708e-05,3.691410852708e-05,4.0320000000001e-05,27.247131783362
8.9299999999999,4.0280000000001e-05,26.927131782966,3.691410852708e-05,3.691410852708e-05,4.0280000000001e-05,26.927131783362
8.9399999999999,4.0240000000001e-05,26.607131782966,3.691410852708e-05,3.691410852708e-05,4.0240000000001e-05,26.607131783362
8.9499999999999,4.0200000000001e-05,26.287131782966,3.691410852708e-05,3.691410852708e-05,4.0200000000001e-05,26.287131783362
8.9599999999999,4.0160000000001e-05,25.967131782966,3.691410852708e-05,3.691410852708e-05,4.0160000000001e-05,25.967131783362
8.9699999999999,4.0120000000001e-05,25.647131782966,3.691410852708e-05,3.691410852708e-05,4.0120000000001e-05,25.647131783362
8.9799999999999,4.0080000000001e-05,25.327131782966,3.691410852708e-05,3.691410852708e-05,4.0080000000001e-05,25.327131783362
8.9899999999999,4.0040000000001e-05,25.007131782966,3.691410852708e-05,3.691410852708e-05,4.0040000000001e-05,25.007131783362
8.9999999999999,4.0000000000001e-05,24.687131782966,3.691410852708e-05,3.691410852708e-05,4.0000000000001e-05,24.687131783362
9.0099999999999,4.0083333333332e-05,25.353798449618,3.691410852708e-05,3.691410852708e-05,4.0083333333332e-05,25.353798450014
9.0199999999999,4.0166666666665e-05,26.020465116284,3.691410852708e-05,3.691410852708e-05,4.0166666666665e-05,26.020465116681
9.0299999999999,4.0249999999999e-05,26.687131782951,3.691410852708e-05,3.691410852708e-05,4.0249999999999e-05,26.687131783347
9.0399999999999,4.0333333333332e-05,27.353798449618,3.691410852708e-05,3.691410852708e-05,4.0333333333332e-05,27.353798450014
9.0499999999999,4.0416666666665e-05,28.020465116284,3.691410852708e-05,3.691410852708e-05,4.0416666666665e-05,28.020465116681
9.0599999999999,4.0499999999999e-05,28.687131782951,3.691410852708e-05,3.691410852708e-05,4.0499999999999e-05,28.687131783347
9.0699999999999,4.0583333333332e-05,29.353798449618,3.691410852708e-05,3.691410852708e-05,4.0583333333332e-05,29.353798450014
9.0799999999999,4.0666666666665e-05,30.020465116284,3.691410852708e-05,3.691410852708e-05,4.0666666666665e-05,30.020465116681
9.0899999999999,4.0749999999999e-05,30.687131782951,3.691410852708e-05,3.691410852708e-05,4.0749999999999e-05,30.687131783347
9.0999999999999,4.0833333333332e-05,31.353798449618,3.691410852708e-05,3.691410852708e-05,4.0833333333332e-05,31.353798450014
9.1099999999999,4.0916666666665e-05,32.020465116284,3.691410852708e-05,3.691410852708e-05,4.0916666666665e-05,32.02046511668
9.1199999999999,4.0999999999999e-05,32.687131782951,3.691410852708e-05,3.691410852708e-05,4.0999999999999e-05,32.687131783347
9.1299999999998,4.1083333333332e-05,33.353798449618,3.691410852708e-05,3.691410852708e-05,4.1083333333332e-05,33.353798450014
9.1399999999998,4.1166666666665e-05,34.020465116284,3.691410852708e-05,3.691410852708e-05,4.1166666666665e-05,34.02046511668
9.1499999999998,4.1249999999999e-05,34.687131782951,3.691410852708e-05,3.691410852708e-05,4.1249999999999e-05,34.687131783347
9.1599999999998,4.1333333333332e-05,35.353798449618,3.691410852708e-05,3.691410852708e-05,4.1333333333332e-05,35.353798450014
9.1699999999998,4.1416666666665e-05,36.020465116284,3.691410852708e-05,3.691410852708e-05,4.1416666666665e-05,36.02046511668
9.1799999999998,4.1499999999999e-05,36.687131782951,3.691410852708e-05,3.691410852708e-05,4.1499999999999e-05,36.687131783347
9.1899999999998,4.1583333333332e-05,37.353798449617,3.691410852708e-05,3.691410852708e-05,4.1583333333332e-05,37.353798450014
9.1999999999998,4.1666666666665e-05,38.020465116284,3.691410852708e-05,3.691410852708e-05,4.1666666666665e-05,38.02046511668
9.2099999999998,4.1749999999999e-05,38.687131782951,3.691410852708e-05,3.691410852708e-05,4.1749999999999e-05,38.687131783347
9.2199999999998,4.1833333333332e-05,39.353798449617,3.691410852708e-05,3.691410852708e-05,4.1833333333332e-05,39.353798450014
9.2299999999998,4.1916666666665e-05,40.020465116284,3.691410852708e-05,3.691410852708e-05,4.1916666666665e-05,40.02046511668
9.2399999999998,4.1999999999999e-05,40.687131782951,3.691410852708e-05,3.691410852708e-05,4.1999999999999e-05,40.687131783347
9.2499999999998,4.2083333333332e-05,41.353798449617,3.691410852708e-05,3.691410852708e-05,4.2083333333332e-05,41.353798450014
9.2599999999998,4.2166666666665e-05,42.020465116284,3.691410852708e-05,3.691410852708e-05,4.2166666666665e-05,42.02046511668
9.2699999999998,4.2249999999999e-05,42.687131782951,3.691410852708e-05,3.691410852708e-05,4.2249999999999e-05,42.687131783347
9.2799999999998,4.2333333333332e-05,43.353798449617,3.691410852708e-05,3.691410852708e-05,4.2333333333332e-05,43.353798450014
9.2899999999998,4.2416666666665e-05,44.020465116284,3.691410852708e-05,3.691410852708e-05,4.2416666666665e-05,44.02046511668
9.2999999999998,4.2499999999999e-05,44.687131782951,3.691410852708e-05,3.691410852708e-05,4.2499999999999e-05,44.687131783347
9.3099999999998,4.2583333333332e-05,45.353798449617,3.691410852708e-05,3.691410852708e-05,4.2583333333332e-05,45.353798450014
9.3199999999998,4.2666666666665e-05,46.020465116284,3.691410852708e-05,3.691410852708e-05,4.2666666666665e-05,46.02046511668
9.3299999999998,4.2749999999999e-05,46.687131782951,3.691410852708e-05,3.691410852708e-05,4.2749999999999e-05,46.687131783347
9.3399999999998,4.2833333333332e-05,47.353798449617,3.691410852708e-05,3.691410852708e-05,4.2833333333332e-05,47.353798450013
9.3499999999998,4.2916666666665e-05,48.020465116284,3.691410852708e-05,3.691410852708e-05,4.2916666666665e-05,48.02046511668
9.3599999999998,4.2999999999999e-05,48.687131782951,3.691410852708e-05,3.691410852708e-05,4.2999999999999e-05,48.687131783347
9.3699999999998,4.3083333333332e-05,49.353798449617,3.691410852708e-05,3.691410852708e-05,4.3083333333332e-05,49.353798450013
9.3799999999998,4.3166666666665e-05,50.020465116284,3.691410852708e-05,3.691410852708e-05,4.3166666666665e-05,50.02046511668
9.3899999999998,4.3249999999999e-05,50.687131782951,3.691410852708e-05,3.691410852708e-05,4.3249999999999e-05,50.687131783347
9.3999999999998,4.3333333333332e-05,51.353798449617,3.691410852708e-05,3.691410852708e-05,4.3333333333332e-05,51.353798450013
9.4099999999998,4.3416666666665e-05,52.020465116284,3.691410852708e-05,3.691410852708e-05,4.3416666666665e-05,52.02046511668
9.4199999999998,4.3499999999999e-05,52.68713178295,3.691410852708e-05,3.691410852708e-05,4.3499999999999e-05,52.687131783347
9.4299999999998,4.3583333333332e-05,53.353798449617,3.691410852708e-05,3.691410852708e-05,4.3583333333332e-05,53.353798450013
9.4399999999998,4.3666666666665e-05,54.020465116284,3.691410852708e-05,3.691410852708e-05,4.3666666666665e-05,54.02046511668
9.4499999999998,4.3749999999999e-05,54.68713178295,3.691410852708e-05,3.691410852708e-05,4.3749999999999e-05,54.687131783347
9.4599999999998,4.3833333333332e-05,55.353798449617,3.691410852708e-05,3.691410852708e-05,4.3833333333332e-05,55.353798450013
9.4699999999998,4.3916666666665e-05,56.020465116284,3.691410852708e-05,3.691410852708e-05,4.3916666666665e-05,56.02046511668
9.4799999999998,4.3999999999999e-05,56.68713178295,3.691410852708e-05,3.691410852708e-05,4.3999999999999e-05,56.687131783347
9.4899999999998,4.4083333333332e-05,57.353798449617,3.691410852708e-05,3.691410852708e-05,4.4083333333332e-05,57.353798450013
9.4999999999998,4.4166666666665e-05,58.020465116284,3.691410852708e-05,3.691410852708e-05,4.4166666666665e-05,58.02046511668
9.5099999999998,4.4249999999999e-05,58.68713178295,3.691410852708e-05,3.691410852708e-05,4.4249999999999e-05,58.687131783347
9.5199999999998,4.4333333333332e-05,59.353798449617,3.691410852708e-05,3.691410852708e-05,4.4333333333332e-05,59.353798450013
9.5299999999998,4.4416666666665e-05,60.020465116284,3.691410852708e-05,3.691410852708e-05,4.4416666666665e-05,60.02046511668
9.5399999999998,4.4499999999999e-05,60.68713178295,3.691410852708e-05,3.691410852708e-05,4.4499999999999e-05,60.687131783347
9.5499999999998,4.4583333333332e-05,61.353798449617,3.691410852708e-05,3.691410852708e-05,4.4583333333332e-05,61.353798450013
9.5599999999998,4.4666666666665e-05,62.020465116284,3.691410852708e-05,3.691410852708e-05,4.4666666666665e-05,62.02046511668
9.5699999999998,4.4749999999999e-05,62.68713178295,3.691410852708e-05,3.691410852708e-05,4.4749999999999e-05,62.687131783347
9.5799999999998,4.4833333333332e-05,63.353798449617,3.691410852708e-05,3.691410852708e-05,4.4833333333332e-05,63.353798450013
9.5899999999998,4.4916666666665e-05,64.020465116284,3.691410852708e-05,3.691410852708e-05,4.4916666666665e-05,64.02046511668
9.5999999999998,4.4999999999999e-05,64.68713178295,3.691410852708e-05,3.691410852708e-05,4.4999999999999e-05,64.687131783346
9.6099999999998,4.5083333333332e-05,65.353798449617,3.691410852708e-05,3.691410852708e-05,4.5083333333332e-05,65.353798450013
9.6199999999998,4.5166666666665e-05,66.020465116284,3.691410852708e-05,3.691410852708e-05,4.5166666666665e-05,66.02046511668
9.6299999999998,4.5249999999999e-05,66.68713178295,3.691410852708e-05,3.691410852708e-05,4.5249999999999e-05,66.687131783346
9.6399999999998,4.5333333333332e-05,67.353798449617,3.691410852708e-05,3.691410852708e-05,4.5333333333332e-05,67.353798450013
9.6499999999998,4.5416666666665e-05,68.020465116283,3.691410852708e-05,3.691410852708e-05,4.5416666666665e-05,68.02046511668
9.6599999999998,4.5499999999999e-05,68.68713178295,3.691410852708e-05,3.691410852708e-05,4.5499999999999e-05,68.687131783346
9.6699999999998,4.5583333333332e-05,69.353798449617,3.691410852708e-05,3.691410852708e-05,4.5583333333332e-05,69.353798450013
9.6799999999998,4.5666666666665e-05,70.020465116283,3.691410852708e-05,3.691410852708e-05,4.5666666666665e-05,70.02046511668
9.6899999999998,4.5749999999999e-05,70.68713178295,3.691410852708e-05,3.691410852708e-05,4.5749999999999e-05,70.687131783346
9.6999999999998,4.5833333333332e-05,71.353798449617,3.691410852708e-05,3.691410852708e-05,4.5833333333332e-05,71.353798450013
9.7099999999998,4.5916666666665e-05,72.020465116283,3.691410852708e-05,3.691410852708e-05,4.5916666666665e-05,72.02046511668
9.7199999999998,4.5999999999999e-05,72.68713178295,3.691410852708e-05,3.691410852708e-05,4.5999999999999e-05,72.687131783346
9.7299999999998,4.6083333333332e-05,73.353798449617,3.691410852708e-05,3.691410852708e-05,4.6083333333332e-05,73.353798450013
9.7399999999998,4.6166666666665e-05,74.020465116283,3.691410852708e-05,3.691410852708e-05,4.6166666666665e-05,74.02046511668
9.7499999999998,4.6249999999999e-05,74.68713178295,3.691410852708e-05,3.691410852708e-05,4.6249999999999e-05,74.687131783346
9.7599999999998,4.6333333333332e-05,75.353798449617,3.691410852708e-05,3.691410852708e-05,4.6333333333332e-05,75.353798450013
9.7699999999998,4.6416666666665e-05,76.020465116283,3.691410852708e-05,3.691410852708e-05,4.6416666666665e-05,76.02046511668
9.7799999999998,4.6499999999999e-05,76.68713178295,3.691410852708e-05,3.691410852708e-05,4.6499999999999e-05,76.687131783346
9.7899999999998,4.6583333333332e-05,77.353798449617,3.691410852708e-05,3.691410852708e-05,4.6583333333332e-05,77.353798450013
9.7999999999998,4.6666666666665e-05,78.020465116283,3.691410852708e-05,3.691410852708e-05,4.6666666666665e-05,78.02046511668
9.8099999999998,4.6749999999999e-05,78.68713178295,3.691410852708e-05,3.691410852708e-05,4.6749999999999e-05,78.687131783346
9.8199999999998,4.6833333333332e-05,79.353798449617,3.691410852708e-05,3.691410852708e-05,4.6833333333332e-05,79.353798450013
9.8299999999998,4.6916666666665e-05,80.020465116283,3.691410852708e-05,3.691410852708e-05,4.6916666666665e-05,80.020465116679
9.8399999999998,4.6999999999999e-05,80.68713178295,3.691410852708e-05,3.691410852708e-05,4.6999999999999e-05,80.687131783346
9.8499999999998,4.7083333333332e-05,81.353798449617,3.691410852708e-05,3.691410852708e-05,4.7083333333332e-05,81.353798450013
9.8599999999998,4.7166666666665e-05,82.020465116283,3.691410852708e-05,3.691410852708e-05,4.7166666666665e-05,82.020465116679
9.8699999999998,4.7249999999999e-05,82.68713178295,3.691410852708e-05,3.691410852708e-05,4.7249999999999e-05,82.687131783346
9.8799999999998,4.7333333333332e-05,83.353798449616,3.691410852708e-05,3.691410852708e-05,4.7333333333332e-05,83.353798450013
9.8899999999998,4.7416666666665e-05,84.020465116283,3.691410852708e-05,3.691410852708e-05,4.7416666666665e-05,84.020465116679
9.8999999999998,4.7499999999999e-05,84.68713178295,3.691410852708e-05,3.691410852708e-05,4.7499999999999e-05,84.687131783346
9.9099999999998,4.7583333333332e-05,85.353798449616,3.691410852708e-05,3.691410852708e-05,4.7583333333332e-05,85.353798450013
9.9199999999998,4.7666666666665e-05,86.020465116283,3.691410852708e-05,3.691410852708e-05,4.7666666666665e-05,86.020465116679
9.9299999999998,4.7749999999999e-05,86.68713178295,3.691410852708e-05,3.691410852708e-05,4.7749999999999e-05,86.687131783346
9.9399999999998,4.7833333333332e-05,87.353798449616,3.691410852708e-05,3.691410852708e-05,4.7833333333332e-05,87.353798450013
9.9499999999998,4.7916666666665e-05,88.020465116283,3.691410852708e-05,3.691410852708e-05,4.7916666666665e-05,88.020465116679
9.9599999999998,4.7999999999999e-05,88.68713178295,3.691410852708e-05,3.691410852708e-05,4.7999999999999e-05,88.687131783346
9.9699999999998,4.8083333333332e-05,89.353798449616,3.691410852708e-05,3.691410852708e-05,4.8083333333332e-05,89.353798450013
9.9799999999998,4.8166666666665e-05,90.020465116283,3.691410852708e-05,3.691410852708e-05,4.8166666666665e-05,90.020465116679
9.9899999999998,4.8249999999999e-05,90.68713178295,3.691410852708e-05,3.691410852708e-05,4.8249999999999e-05,90.687131783346
9.9999999999998,4.8333333333332e-05,91.353798449616,3.691410852708e-05,3.691410852708e-05,4.8333333333332e-05,91.353798450013
10.01,4.8416666666665e-05,92.020465116283,3.691410852708e-05,3.691410852708e-05,4.8416666666665e-05,92.020465116679
10.02,4.8499999999999e-05,92.68713178295,3.691410852708e-05,3.691410852708e-05,4.8499999999999e-05,92.687131783346
10.03,4.8583333333332e-05,93.353798449616,3.691410852708e-05,3.691410852708e-05,4.8583333333332e-05,93.353798450013
10.04,4.8666666666665e-05,94.020465116283,3.691410852708e-05,3.691410852708e-05,4.8666666666665e-05,94.020465116679
10.05,4.8749999999999e-05,94.68713178295,3.691410852708e-05,3.691410852708e-05,4.8749999999999e-05,94.687131783346
10.06,4.8833333333332e-05,95.353798449616,3.691410852708e-05,3.691410852708e-05,4.8833333333332e-05,95.353798450012
10.07,4.8916666666665e-05,96.020465116283,3.691410852708e-05,3.691410852708e-05,4.8916666666665e-05,96.020465116679
10.08,4.8999999999999e-05,96.68713178295,3.691410852708e-05,3.691410852708e-05,4.8999999999999e-05,96.687131783346
10.09,4.9083333333332e-05,97.353798449616,3.691410852708e-05,3.691410852708e-05,4.9083333333332e-05,97.353798450012
10.1,4.9166666666665e-05,98.020465116283,3.691410852708e-05,3.691410852708e-05,4.9166666666665e-05,98.020465116679
10.11,4.9249999999999e-05,98.68713178295,3.691410852708e-05,3.691410852708e-05,4.9249999999999e-05,98.687131783346
10.12,4.9333333333332e-05,99.353798449616,3.691410852708e-05,3.691410852708e-05,4.9333333333332e-05,99.353798450012
10.13,4.9416666666665e-05,100.02046511628,3.691410852708e-05,3.691410852708e-05,4.9416666666665e-05,100.02046511668
10.14,4.9499999999999e-05,100.68713178295,3.691410852708e-05,3.691410852708e-05,4.9499999999999e-05,100.68713178335
10.15,4.9583333333332e-05,101.35379844962,3.691410852708e-05,3.691410852708e-05,4.9583333333332e-05,101.35379845001
10.16,4.9666666666665e-05,102.02046511628,3.691410852708e-05,3.691410852708e-05,4.9666666666665e-05,102.02046511668
10.17,4.9749999999999e-05,102.68713178295,3.691410852708e-05,3.691410852708e-05,4.9749999999999e-05,102.68713178335
10.18,4.9833333333332e-05,103.35379844962,3.691410852708e-05,3.691410852708e-05,4.9833333333332e-05,103.35379845001
10.19,4.9916666666665e-05,104.02046511628,3.691410852708e-05,3.691410852708e-05,4.9916666666665e-05,104.02046511668
10.2,4.9999999999999e-05,104.68713178295,3.691410852708e-05,3.691410852708e-05,4.9999999999999e-05,104.68713178335
10.21,5.0083333333332e-05,105.35379844962,3.691410852708e-05,3.691410852708e-05,5.0083333333332e-05,105.35379845001
10.22,5.0166666666665e-05,106.02046511628,3.691410852708e-05,3.691410852708e-05,5.0166666666665e-05,106.02046511668
10.23,5.0249999999999e-05,106.68713178295,3.691410852708e-05,3.691410852708e-05,5.0249999999999e-05,106.68713178335
10.24,5.0333333333332e-05,107.35379844962,3.691410852708e-05,3.691410852708e-05,5.0333333333332e-05,107.35379845001
10.25,5.0416666666665e-05,108.02046511628,3.691410852708e-05,3.691410852708e-05,5.0416666666665e-05,108.02046511668
10.26,5.0499999999999e-05,108.68713178295,3.691410852708e-05,3.691410852708e-05,5.0499999999999e-05,108.68713178335
10.27,5.0583333333332e-05,109.35379844962,3.691410852708e-05,3.691410852708e-05,5.0583333333332e-05,109.35379845001
10.28,5.0666666666665e-05,110.02046511628,3.691410852708e-05,3.691410852708e-05,5.0666666666665e-05,110.02046511668
10.29,5.0749999999999e-05,110.68713178295,3.691410852708e-05,3.691410852708e-05,5.0749999999999e-05,110.68713178335
10.3,5.0833333333332e-05,111.35379844962,3.691410852708e-05,3.691410852708e-05,5.0833333333332e-05,111.35379845001
10.31,5.0916666666665e-05,112.02046511628,3.691410852708e-05,3.691410852708e-05,5.0916666666665e-05,112.02046511668
10.32,5.0999999999999e-05,112.68713178295,3.691410852708e-05,3.691410852708e-05,5.0999999999999e-05,112.68713178335
10.33,5.1083333333332e-05,113.35379844962,3.691410852708e-05,3.691410852708e-05,5.1083333333332e-05,113.35379845001
10.34,5.1166666666665e-05,114.02046511628,3.691410852708e-05,3.691410852708e-05,5.1166666666665e-05,114.02046511668
10.35,5.1249999999999e-05,114.68713178295,3.691410852708e-05,3.691410852708e-05,5.1249999999999e-05,114.68713178335
10.36,5.1333333333332e-05,115.35379844962,3.691410852708e-05,3.691410852708e-05,5.1333333333332e-05,115.35379845001
10.37,5.1416666666665e-05,116.02046511628,3.691410852708e-05,3.691410852708e-05,5.1416666666665e-05,116.02046511668
10.38,5.1499999999999e-05,116.68713178295,3.691410852708e-05,3.691410852708e-05,5.1499999999999e-05,116.68713178335
10.39,5.1583333333332e-05,117.35379844962,3.691410852708e-05,3.691410852708e-05,5.1583333333332e-05,117.35379845001
10.4,5.1666666666665e-05,118.02046511628,3.691410852708e-05,3.691410852708e-05,5.1666666666665e-05,118.02046511668
10.41,5.1749999999999e-05,118.68713178295,3.691410852708e-05,3.691410852708e-05,5.1749999999999e-05,118.68713178335
10.42,5.1833333333332e-05,119.35379844962,3.691410852708e-05,3.691410852708e-05,5.1833333333332e-05,119.35379845001
10.43,5.1916666666665e-05,120.02046511628,3.691410852708e-05,3.691410852708e-05,5.1916666666665e-05,120.02046511668
10.44,5.1999999999999e-05,120.68713178295,3.691410852708e-05,3.691410852708e-05,5.1999999999999e-05,120.68713178335
10.45,5.2083333333332e-05,121.35379844962,3.691410852708e-05,3.691410852708e-05,5.2083333333332e-05,121.35379845001
10.46,5.2166666666665e-05,122.02046511628,3.691410852708e-05,3.691410852708e-05,5.2166666666665e-05,122.02046511668
10.47,5.2249999999999e-05,122.68713178295,3.691410852708e-05,3.691410852708e-05,5.2249999999999e-05,122.68713178335
10.48,5.2333333333332e-05,123.35379844962,3.691410852708e-05,3.691410852708e-05,5.2333333333332e-05,123.35379845001
10.49,5.2416666666665e-05,124.02046511628,3.691410852708e-05,3.691410852708e-05,5.2416666666665e-05,124.02046511668
10.5,5.2499999999999e-05,124.68713178295,3.691410852708e-05,3.691410852708e-05,5.2499999999999e-05,124.68713178335
10.51,5.2583333333332e-05,125.35379844962,3.691410852708e-05,3.691410852708e-05,5.2583333333332e-05,125.35379845001
10.52,5.2666666666665e-05,126.02046511628,3.691410852708e-05,3.691410852708e-05,5.2666666666665e-05,126.02046511668
10.53,5.2749999999999e-05,126.68713178295,3.691410852708e-05,3.691410852708e-05,5.2749999999998e-05,126.68713178335
10.54,5.2833333333332e-05,127.35379844962,3.691410852708e-05,3.691410852708e-05,5.2833333333332e-05,127.35379845001
10.55,5.2916666666665e-05,128.02046511628,3.691410852708e-05,3.691410852708e-05,5.2916666666665e-05,128.02046511668
10.56,5.2999999999998e-05,128.68713178295,3.691410852708e-05,3.691410852708e-05,5.2999999999998e-05,128.68713178335
10.57,5.3083333333332e-05,129.35379844962,3.691410852708e-05,3.691410852708e-05,5.3083333333332e-05,129.35379845001
10.58,5.3166666666665e-05,130.02046511628,3.691410852708e-05,3.691410852708e-05,5.3166666666665e-05,130.02046511668
10.59,5.3249999999998e-05,130.68713178295,3.691410852708e-05,3.691410852708e-05,5.3249999999998e-05,130.68713178335
10.6,5.3333333333332e-05,131.35379844962,3.691410852708e-05,3.691410852708e-05,5.3333333333332e-05,131.35379845001
10.61,5.3416666666665e-05,132.02046511628,3.691410852708e-05,3.691410852708e-05,5.3416666666665e-05,132.02046511668
10.62,5.3499999999998e-05,132.68713178295,3.691410852708e-05,3.691410852708e-05,5.3499999999998e-05,132.68713178335
10.63,5.3583333333332e-05,133.35379844962,3.691410852708e-05,3.691410852708e-05,5.3583333333332e-05,133.35379845001
10.64,5.3666666666665e-05,134.02046511628,3.691410852708e-05,3.691410852708e-05,5.3666666666665e-05,134.02046511668
10.65,5.3749999999998e-05,134.68713178295,3.691410852708e-05,3.691410852708e-05,5.3749999999998e-05,134.68713178334
10.66,5.3833333333332e-05,135.35379844962,3.691410852708e-05,3.691410852708e-05,5.3833333333332e-05,135.35379845001
10.67,5.3916666666665e-05,136.02046511628,3.691410852708e-05,3.691410852708e-05,5.3916666666665e-05,136.02046511668
10.68,5.3999999999998e-05,136.68713178295,3.691410852708e-05,3.691410852708e-05,5.3999999999998e-05,136.68713178334
10.69,5.4083333333332e-05,137.35379844962,3.691410852708e-05,3.691410852708e-05,5.4083333333332e-05,137.35379845001
10.7,5.4166666666665e-05,138.02046511628,3.691410852708e-05,3.691410852708e-05,5.4166666666665e-05,138.02046511668
10.71,5.4249999999998e-05,138.68713178295,3.691410852708e-05,3.691410852708e-05,5.4249999999998e-05,138.68713178334
10.72,5.4333333333332e-05,139.35379844962,3.691410852708e-05,3.691410852708e-05,5.4333333333332e-05,139.35379845001
10.73,5.4416666666665e-05,140.02046511628,3.691410852708e-05,3.691410852708e-05,5.4416666666665e-05,140.02046511668
10.74,5.4499999999998e-05,140.68713178295,3.691410852708e-05,3.691410852708e-05,5.4499999999998e-05,140.68713178334
10.75,5.4583333333332e-05,141.35379844962,3.691410852708e-05,3.691410852708e-05,5.4583333333332e-05,141.35379845001
10.76,5.4666666666665e-05,142.02046511628,3.691410852708e-05,3.691410852708e-05,5.4666666666665e-05,142.02046511668
10.77,5.4749999999998e-05,142.68713178295,3.691410852708e-05,3.691410852708e-05,5.4749999999998e-05,142.68713178334
10.78,5.4833333333332e-05,143.35379844962,3.691410852708e-05,3.691410852708e-05,5.4833333333332e-05,143.35379845001
10.79,5.4916666666665e-05,144.02046511628,3.691410852708e-05,3.691410852708e-05,5.4916666666665e-05,144.02046511668
10.8,5.4999999999998e-05,144.68713178295,3.691410852708e-05,3.691410852708e-05,5.4999999999998e-05,144.68713178334
10.81,5.5083333333332e-05,145.35379844962,3.691410852708e-05,3.691410852708e-05,5.5083333333332e-05,145.35379845001
10.82,5.5166666666665e-05,146.02046511628,3.691410852708e-05,3.691410852708e-05,5.5166666666665e-05,146.02046511668
10.83,5.5249999999998e-05,146.68713178295,3.691410852708e-05,3.691410852708e-05,5.5249999999998e-05,146.68713178334
10.84,5.5333333333332e-05,147.35379844962,3.691410852708e-05,3.691410852708e-05,5.5333333333332e-05,147.35379845001
10.85,5.5416666666665e-05,148.02046511628,3.691410852708e-05,3.691410852708e-05,5.5416666666665e-05,148.02046511668
10.86,5.5499999999998e-05,148.68713178295,3.691410852708e-05,3.691410852708e-05,5.5499999999998e-05,148.68713178334
10.87,5.5583333333332e-05,149.35379844962,3.691410852708e-05,3.691410852708e-05,5.5583333333332e-05,149.35379845001
10.88,5.5666666666665e-05,150.02046511628,3.691410852708e-05,3.691410852708e-05,5.5666666666665e-05,150.02046511668
10.89,5.5749999999998e-05,150.68713178295,3.691410852708e-05,3.691410852708e-05,5.5749999999998e-05,150.68713178334
10.9,5.5833333333332e-05,151.35379844961,3.691410852708e-05,3.691410852708e-05,5.5833333333332e-05,151.35379845001
10.91,5.5916666666665e-05,152.02046511628,3.691410852708e-05,3.691410852708e-05,5.5916666666665e-05,152.02046511668
10.92,5.5999999999998e-05,152.68713178295,3.691410852708e-05,3.691410852708e-05,5.5999999999998e-05,152.68713178334
10.93,5.6083333333332e-05,153.35379844962,3.691410852708e-05,3.691410852708e-05,5.6083333333332e-05,153.35379845001
10.94,5.6166666666665e-05,154.02046511628,3.691410852708e-05,3.691410852708e-05,5.6166666666665e-05,154.02046511668
10.95,5.6249999999998e-05,154.68713178295,3.691410852708e-05,3.691410852708e-05,5.6249999999998e-05,154.68713178334
10.96,5.6333333333332e-05,155.35379844961,3.691410852708e-05,3.691410852708e-05,5.6333333333332e-05,155.35379845001
10.97,5.6416666666665e-05,156.02046511628,3.691410852708e-05,3.691410852708e-05,5.6416666666665e-05,156.02046511668
10.98,5.6499999999998e-05,156.68713178295,3.691410852708e-05,3.691410852708e-05,5.6499999999998e-05,156.68713178334
10.99,5.6583333333332e-05,157.35379844961,3.691410852708e-05,3.691410852708e-05,5.6583333333332e-05,157.35379845001
11,5.6666666666665e-05,158.02046511628,3.691410852708e-05,3.691410852708e-05,5.6666666666665e-05,158.02046511668
11.01,5.6749999999998e-05,158.68713178295,3.691410852708e-05,3.691410852708e-05,5.6749999999998e-05,158.68713178334
11.02,5.6833333333332e-05,159.35379844961,3.691410852708e-05,3.691410852708e-05,5.6833333333332e-05,159.35379845001
11.03,5.6916666666665e-05,160.02046511628,3.691410852708e-05,3.691410852708e-05,5.6916666666665e-05,160.02046511668
11.04,5.6999999999998e-05,160.68713178295,3.691410852708e-05,3.691410852708e-05,5.6999999999998e-05,160.68713178334
11.05,5.7083333333332e-05,161.35379844961,3.691410852708e-05,3.691410852708e-05,5.7083333333332e-05,161.35379845001
11.06,5.7166666666665e-05,162.02046511628,3.691410852708e-05,3.691410852708e-05,5.7166666666665e-05,162.02046511668
11.07,5.7249999999998e-05,162.68713178295,3.691410852708e-05,3.691410852708e-05,5.7249999999998e-05,162.68713178334
11.08,5.7333333333332e-05,163.35379844961,3.691410852708e-05,3.691410852708e-05,5.7333333333332e-05,163.35379845001
11.09,5.7416666666665e-05,164.02046511628,3.691410852708e-05,3.691410852708e-05,5.7416666666665e-05,164.02046511668
11.1,5.7499999999998e-05,164.68713178295,3.691410852708e-05,3.691410852708e-05,5.7499999999998e-05,164.68713178334
11.11,5.7583333333332e-05,165.35379844961,3.691410852708e-05,3.691410852708e-05,5.7583333333332e-05,165.35379845001
11.12,5.7666666666665e-05,166.02046511628,3.691410852708e-05,3.691410852708e-05,5.7666666666665e-05,166.02046511668
11.13,5.7749999999998e-05,166.68713178295,3.691410852708e-05,3.691410852708e-05,5.7749999999998e-05,166.68713178334
11.14,5.7833333333332e-05,167.35379844961,3.691410852708e-05,3.691410852708e-05,5.7833333333332e-05,167.35379845001
11.15,5.7916666666665e-05,168.02046511628,3.691410852708e-05,3.691410852708e-05,5.7916666666665e-05,168.02046511668
11.16,5.7999999999998e-05,168.68713178295,3.691410852708e-05,3.691410852708e-05,5.7999999999998e-05,168.68713178334
11.17,5.8083333333332e-05,169.35379844961,3.691410852708e-05,3.691410852708e-05,5.8083333333332e-05,169.35379845001
11.18,5.8166666666665e-05,170.02046511628,3.691410852708e-05,3.691410852708e-05,5.8166666666665e-05,170.02046511668
11.19,5.8249999999998e-05,170.68713178295,3.691410852708e-05,3.691410852708e-05,5.8249999999998e-05,170.68713178334
11.2,5.8333333333332e-05,171.35379844961,3.691410852708e-05,3.691410852708e-05,5.8333333333332e-05,171.35379845001
11.21,5.8416666666665e-05,172.02046511628,3.691410852708e-05,3.691410852708e-05,5.8416666666665e-05,172.02046511668
11.22,5.8499999999998e-05,172.68713178295,3.691410852708e-05,3.691410852708e-05,5.8499999999998e-05,172.68713178334
11.23,5.8583333333332e-05,173.35379844961,3.691410852708e-05,3.691410852708e-05,5.8583333333332e-05,173.35379845001
11.24,5.8666666666665e-05,174.02046511628,3.691410852708e-05,3.691410852708e-05,5.8666666666665e-05,174.02046511668
11.25,5.8749999999998e-05,174.68713178295,3.691410852708e-05,3.691410852708e-05,5.8749999999998e-05,174.68713178334
11.26,5.8833333333332e-05,175.35379844961,3.691410852708e-05,3.691410852708e-05,5.8833333333332e-05,175.35379845001
11.27,5.8916666666665e-05,176.02046511628,3.691410852708e-05,3.691410852708e-05,5.8916666666665e-05,176.02046511668
11.28,5.8999999999998e-05,176.68713178295,3.691410852708e-05,3.691410852708e-05,5.8999999999998e-05,176.68713178334
11.29,5.9083333333332e-05,177.35379844961,3.691410852708e-05,3.691410852708e-05,5.9083333333332e-05,177.35379845001
11.3,5.9166666666665e-05,178.02046511628,3.691410852708e-05,3.691410852708e-05,5.9166666666665e-05,178.02046511668
11.31,5.9249999999998e-05,178.68713178295,3.691410852708e-05,3.691410852708e-05,5.9249999999998e-05,178.68713178334
11.32,5.9333333333332e-05,179.35379844961,3.691410852708e-05,3.691410852708e-05,5.9333333333332e-05,179.35379845001
11.33,5.9416666666665e-05,180.02046511628,3.691410852708e-05,3.691410852708e-05,5.9416666666665e-05,180.02046511668
11.34,5.9499999999998e-05,180.68713178295,3.691410852708e-05,3.691410852708e-05,5.9499999999998e-05,180.68713178334
11.35,5.9583333333332e-05,181.35379844961,3.691410852708e-05,3.691410852708e-05,5.9583333333332e-05,181.35379845001
11.36,5.9666666666665e-05,182.02046511628,3.691410852708e-05,3.691410852708e-05,5.9666666666665e-05,182.02046511668
11.37,5.9749999999998e-05,182.68713178295,3.691410852708e-05,3.691410852708e-05,5.9749999999998e-05,182.68713178334
11.38,5.9833333333332e-05,183.35379844961,3.691410852708e-05,3.691410852708e-05,5.9833333333332e-05,183.35379845001
11.39,5.9916666666665e-05,184.02046511628,3.691410852708e-05,3.691410852708e-05,5.9916666666665e-05,184.02046511668
11.4,5.9999999999998e-05,184.68713178295,3.691410852708e-05,3.691410852708e-05,5.9999999999998e-05,184.68713178334
11.41,6.0083333333332e-05,185.35379844961,3.691410852708e-05,3.691410852708e-05,6.0083333333332e-05,185.35379845001
11.42,6.0166666666665e-05,186.02046511628,3.691410852708e-05,3.691410852708e-05,6.0166666666665e-05,186.02046511668
11.43,6.0249999999998e-05,186.68713178295,3.691410852708e-05,3.691410852708e-05,6.0249999999998e-05,186.68713178334
11.44,6.0333333333332e-05,187.35379844961,3.691410852708e-05,3.691410852708e-05,6.0333333333332e-05,187.35379845001
11.45,6.0416666666665e-05,188.02046511628,3.691410852708e-05,3.691410852708e-05,6.0416666666665e-05,188.02046511668
11.46,6.0499999999998e-05,188.68713178295,3.691410852708e-05,3.691410852708e-05,6.0499999999998e-05,188.68713178334
11.47,6.0583333333332e-05,189.35379844961,3.691410852708e-05,3.691410852708e-05,6.0583333333332e-05,189.35379845001
11.48,6.0666666666665e-05,190.02046511628,3.691410852708e-05,3.691410852708e-05,6.0666666666665e-05,190.02046511668
11.49,6.0749999999998e-05,190.68713178295,3.691410852708e-05,3.691410852708e-05,6.0749999999998e-05,190.68713178334
11.5,6.0833333333332e-05,191.35379844961,3.691410852708e-05,3.691410852708e-05,6.0833333333332e-05,191.35379845001
11.51,6.0916666666665e-05,192.02046511628,3.691410852708e-05,3.691410852708e-05,6.0916666666665e-05,192.02046511668
11.52,6.0999999999998e-05,192.68713178295,3.691410852708e-05,3.691410852708e-05,6.0999999999998e-05,192.68713178334
11.53,6.1083333333332e-05,193.35379844961,3.691410852708e-05,3.691410852708e-05,6.1083333333332e-05,193.35379845001
11.54,6.1166666666665e-05,194.02046511628,3.691410852708e-05,3.691410852708e-05,6.1166666666665e-05,194.02046511668
11.55,6.1249999999998e-05,194.68713178295,3.691410852708e-05,3.691410852708e-05,6.1249999999998e-05,194.68713178334
11.56,6.1333333333332e-05,195.35379844961,3.691410852708e-05,3.691410852708e-05,6.1333333333332e-05,195.35379845001
11.57,6.1416666666665e-05,196.02046511628,3.691410852708e-05,3.691410852708e-05,6.1416666666665e-05,196.02046511668
11.58,6.1499999999998e-05,196.68713178295,3.691410852708e-05,3.691410852708e-05,6.1499999999998e-05,196.68713178334
11.59,6.1583333333332e-05,197.35379844961,3.691410852708e-05,3.691410852708e-05,6.1583333333332e-05,197.35379845001
11.6,6.1666666666665e-05,198.02046511628,3.691410852708e-05,3.691410852708e-05,6.1666666666665e-05,198.02046511668
11.61,6.1749999999998e-05,198.68713178295,3.691410852708e-05,3.691410852708e-05,6.1749999999998e-05,198.68713178334
11.62,6.1833333333332e-05,199.35379844961,3.691410852708e-05,3.691410852708e-05,6.1833333333332e-05,199.35379845001
11.63,6.1916666666665e-05,200.02046511628,3.691410852708e-05,3.691410852708e-05,6.1916666666665e-05,200.02046511668
11.64,6.1999999999998e-05,200.68713178295,3.691410852708e-05,3.691410852708e-05,6.1999999999998e-05,200.68713178334
11.65,6.2083333333332e-05,201.35379844961,3.691410852708e-05,3.691410852708e-05,6.2083333333332e-05,201.35379845001
11.66,6.2166666666665e-05,202.02046511628,3.691410852708e-05,3.691410852708e-05,6.2166666666665e-05,202.02046511668
11.67,6.2249999999998e-05,202.68713178295,3.691410852708e-05,3.691410852708e-05,6.2249999999998e-05,202.68713178334
11.68,6.2333333333332e-05,203.35379844961,3.691410852708e-05,3.691410852708e-05,6.2333333333332e-05,203.35379845001
11.69,6.2416666666665e-05,204.02046511628,3.691410852708e-05,3.691410852708e-05,6.2416666666665e-05,204.02046511668
11.7,6.2499999999998e-05,204.68713178295,3.691410852708e-05,3.691410852708e-05,6.2499999999998e-05,204.68713178334
11.71,6.2583333333332e-05,205.35379844961,3.691410852708e-05,3.691410852708e-05,6.2583333333332e-05,205.35379845001
11.72,6.2666666666665e-05,206.02046511628,3.691410852708e-05,3.691410852708e-05,6.2666666666665e-05,206.02046511668
11.73,6.2749999999998e-05,206.68713178295,3.691410852708e-05,3.691410852708e-05,6.2749999999998e-05,206.68713178334
11.74,6.2833333333332e-05,207.35379844961,3.691410852708e-05,3.691410852708e-05,6.2833333333332e-05,207.35379845001
11.75,6.2916666666665e-05,208.02046511628,3.691410852708e-05,3.691410852708e-05,6.2916666666665e-05,208.02046511668
11.76,6.2999999999998e-05,208.68713178295,3.691410852708e-05,3.691410852708e-05,6.2999999999998e-05,208.68713178334
11.77,6.3083333333332e-05,209.35379844961,3.691410852708e-05,3.691410852708e-05,6.3083333333332e-05,209.35379845001
11.78,6.3166666666665e-05,210.02046511628,3.691410852708e-05,3.691410852708e-05,6.3166666666665e-05,210.02046511668
11.79,6.3249999999998e-05,210.68713178295,3.691410852708e-05,3.691410852708e-05,6.3249999999998e-05,210.68713178334
11.8,6.3333333333332e-05,211.35379844961,3.691410852708e-05,3.691410852708e-05,6.3333333333332e-05,211.35379845001
11.81,6.3416666666665e-05,212.02046511628,3.691410852708e-05,3.691410852708e-05,6.3416666666665e-05,212.02046511668
11.82,6.3499999999998e-05,212.68713178295,3.691410852708e-05,3.691410852708e-05,6.3499999999998e-05,212.68713178334
11.83,6.3583333333332e-05,213.35379844961,3.691410852708e-05,3.691410852708e-05,6.3583333333332e-05,213.35379845001
11.84,6.3666666666665e-05,214.02046511628,3.691410852708e-05,3.691410852708e-05,6.3666666666665e-05,214.02046511668
11.85,6.3749999999998e-05,214.68713178295,3.691410852708e-05,3.691410852708e-05,6.3749999999998e-05,214.68713178334
11.86,6.3833333333332e-05,215.35379844961,3.691410852708e-05,3.691410852708e-05,6.3833333333332e-05,215.35379845001
11.87,6.3916666666665e-05,216.02046511628,3.691410852708e-05,3.691410852708e-05,6.3916666666665e-05,216.02046511668
11.88,6.3999999999998e-05,216.68713178295,3.691410852708e-05,3.691410852708e-05,6.3999999999998e-05,216.68713178334
11.89,6.4083333333332e-05,216.59189368769,3.700934662235e-05,3.700934662235e-05,6.4083333333332e-05,216.59189368785
11.9,6.4166666666665e-05,216.49665559245,3.7104584717588e-05,3.7104584717588e-05,6.4166666666665e-05,216.49665559261
11.91,6.4249999999998e-05,216.40141749721,3.7199822812827e-05,3.7199822812827e-05,6.4249999999998e-05,216.40141749737
11.92,6.4333333333332e-05,216.30617940197,3.7295060908065e-05,3.7295060908065e-05,6.4333333333332e-05,216.30617940214
11.93,6.4416666666665e-05,216.21094130674,3.7390299003303e-05,3.7390299003303e-05,6.4416666666665e-05,216.2109413069
11.94,6.4499999999998e-05,216.1157032115,3.7485537098541e-05,3.7485537098541e-05,6.4499999999998e-05,216.11570321166
11.95,6.4583333333332e-05,216.02046511626,3.7580775193779e-05,3.7580775193779e-05,6.4583333333332e-05,216.02046511642
11.96,6.4666666666665e-05,215.92522702102,3.7676013289017e-05,3.7676013289017e-05,6.4666666666665e-05,215.92522702118
11.97,6.4749999999998e-05,215.82998892578,3.7771251384255e-05,3.7771251384255e-05,6.4749999999998e-05,215.82998892595
11.98,6.4833333333332e-05,215.73475083054,3.7866489479493e-05,3.7866489479493e-05,6.4833333333332e-05,215.73475083071
11.99,6.4916666666665e-05,215.63951273531,3.7961727574731e-05,3.7961727574731e-05,6.4916666666665e-05,215.63951273547
12,6.4999999999998e-05,215.54427464007,3.8056965669969e-05,3.8056965669969e-05,6.4999999999998e-05,215.54427464023
12.01,6.5083333333332e-05,215.44903654483,3.8152203765207e-05,3.8152203765207e-05,6.5083333333332e-05,215.44903654499
12.02,6.5166666666665e-05,215.35379844959,3.8247441860445e-05,3.8247441860445e-05,6.5166666666665e-05,215.35379844976
12.03,6.5249999999998e-05,215.25856035435,3.8342679955684e-05,3.8342679955684e-05,6.5249999999998e-05,215.25856035452
12.04,6.5333333333332e-05,215.16332225912,3.8437918050922e-05,3.8437918050922e-05,6.5333333333332e-05,215.16332225928
12.05,6.5416666666665e-05,215.06808416388,3.853315614616e-05,3.853315614616e-05,6.5416666666665e-05,215.06808416404
12.06,6.5499999999998e-05,214.97284606864,3.8628394241398e-05,3.8628394241398e-05,6.5499999999998e-05,214.9728460688
12.07,6.5583333333332e-05,214.8776079734,3.8723632336636e-05,3.8723632336636e-05,6.5583333333332e-05,214.87760797357
12.08,6.5666666666665e-05,214.78236987816,3.8818870431874e-05,3.8818870431874e-05,6.5666666666665e-05,214.78236987833
12.09,6.5749999999998e-05,214.68713178293,3.8914108527112e-05,3.8914108527112e-05,6.5749999999998e-05,214.68713178309
12.1,6.5833333333332e-05,214.59189368769,3.900934662235e-05,3.900934662235e-05,6.5833333333332e-05,214.59189368785
12.11,6.5916666666665e-05,214.49665559245,3.9104584717588e-05,3.9104584717588e-05,6.5916666666665e-05,214.49665559261
12.12,6.5999999999998e-05,214.40141749721,3.9199822812826e-05,3.9199822812826e-05,6.5999999999998e-05,214.40141749738
12.13,6.6083333333332e-05,214.30617940197,3.9295060908064e-05,3.9295060908064e-05,6.6083333333332e-05,214.30617940214
12.14,6.6166666666665e-05,214.21094130674,3.9390299003302e-05,3.9390299003302e-05,6.6166666666665e-05,214.2109413069
12.15,6.6249999999998e-05,214.1157032115,3.9485537098541e-05,3.9485537098541e-05,6.6249999999998e-05,214.11570321166
12.16,6.6333333333332e-05,214.02046511626,3.9580775193779e-05,3.9580775193779e-05,6.6333333333332e-05,214.02046511642
12.17,6.6416666666665e-05,213.92522702102,3.9676013289017e-05,3.9676013289017e-05,6.6416666666665e-05,213.92522702119
12.18,6.6499999999998e-05,213.82998892578,3.9771251384255e-05,3.9771251384255e-05,6.6499999999998e-05,213.82998892595
12.19,6.6583333333332e-05,213.73475083054,3.9866489479493e-05,3.9866489479493e-05,6.6583333333332e-05,213.73475083071
12.2,6.6666666666665e-05,213.63951273531,3.9961727574731e-05,3.9961727574731e-05,6.6666666666665e-05,213.63951273547
12.21,6.6749999999998e-05,213.54427464007,4.0056965669969e-05,4.0056965669969e-05,6.6749999999998e-05,213.54427464023
12.22,6.6833333333332e-05,213.44903654483,4.0152203765207e-05,4.0152203765207e-05,6.6833333333332e-05,213.449036545
12.23,6.6916666666665e-05,213.35379844959,4.0247441860445e-05,4.0247441860445e-05,6.6916666666665e-05,213.35379844976
12.24,6.6999999999998e-05,213.25856035435,4.0342679955683e-05,4.0342679955683e-05,6.6999999999998e-05,213.25856035452
12.25,6.7083333333332e-05,213.16332225912,4.0437918050921e-05,4.0437918050921e-05,6.7083333333332e-05,213.16332225928
12.26,6.7166666666665e-05,213.06808416388,4.053315614616e-05,4.053315614616e-05,6.7166666666665e-05,213.06808416404
12.27,6.7249999999998e-05,212.97284606864,4.0628394241398e-05,4.0628394241398e-05,6.7249999999998e-05,212.97284606881
12.28,6.7333333333332e-05,212.8776079734,4.0723632336636e-05,4.0723632336636e-05,6.7333333333332e-05,212.87760797357
12.29,6.7416666666665e-05,212.78236987816,4.0818870431874e-05,4.0818870431874e-05,6.7416666666665e-05,212.78236987833
12.3,6.7499999999998e-05,212.68713178293,4.0914108527112e-05,4.0914108527112e-05,6.7499999999998e-05,212.68713178309
12.31,6.7583333333332e-05,212.59189368769,4.100934662235e-05,4.100934662235e-05,6.7583333333332e-05,212.59189368785
12.32,6.7666666666665e-05,212.49665559245,4.1104584717588e-05,4.1104584717588e-05,6.7666666666665e-05,212.49665559261
12.33,6.7749999999998e-05,212.40141749721,4.1199822812826e-05,4.1199822812826e-05,6.7749999999998e-05,212.40141749738
12.34,6.7833333333332e-05,212.30617940197,4.1295060908064e-05,4.1295060908064e-05,6.7833333333332e-05,212.30617940214
12.35,6.7916666666665e-05,212.21094130674,4.1390299003302e-05,4.1390299003302e-05,6.7916666666665e-05,212.2109413069
12.36,6.7999999999998e-05,212.1157032115,4.148553709854e-05,4.148553709854e-05,6.7999999999998e-05,212.11570321166
12.37,6.8083333333332e-05,212.02046511626,4.1580775193778e-05,4.1580775193778e-05,6.8083333333332e-05,212.02046511642
12.38,6.8166666666665e-05,211.92522702102,4.1676013289017e-05,4.1676013289017e-05,6.8166666666665e-05,211.92522702119
12.39,6.8249999999998e-05,211.82998892578,4.1771251384255e-05,4.1771251384255e-05,6.8249999999998e-05,211.82998892595
12.4,6.8333333333332e-05,211.73475083055,4.1866489479493e-05,4.1866489479493e-05,6.8333333333332e-05,211.73475083071
12.41,6.8416666666665e-05,211.63951273531,4.1961727574731e-05,4.1961727574731e-05,6.8416666666665e-05,211.63951273547
12.42,6.8499999999998e-05,211.54427464007,4.2056965669969e-05,4.2056965669969e-05,6.8499999999998e-05,211.54427464023
12.43,6.8583333333331e-05,211.44903654483,4.2152203765207e-05,4.2152203765207e-05,6.8583333333332e-05,211.449036545
12.44,6.8666666666665e-05,211.35379844959,4.2247441860445e-05,4.2247441860445e-05,6.8666666666665e-05,211.35379844976
12.45,6.8749999999998e-05,211.25856035435,4.2342679955683e-05,4.2342679955683e-05,6.8749999999998e-05,211.25856035452
12.46,6.8833333333332e-05,211.16332225912,4.2437918050921e-05,4.2437918050921e-05,6.8833333333332e-05,211.16332225928
12.47,6.8916666666665e-05,211.06808416388,4.2533156146159e-05,4.2533156146159e-05,6.8916666666665e-05,211.06808416404
12.48,6.8999999999998e-05,210.97284606864,4.2628394241397e-05,4.2628394241397e-05,6.8999999999998e-05,210.97284606881
12.49,6.9083333333331e-05,210.8776079734,4.2723632336636e-05,4.2723632336636e-05,6.9083333333331e-05,210.87760797357
12.5,6.9166666666665e-05,210.78236987816,4.2818870431874e-05,4.2818870431874e-05,6.9166666666665e-05,210.78236987833
12.51,6.9249999999998e-05,210.68713178293,4.2914108527112e-05,4.2914108527112e-05,6.9249999999998e-05,210.68713178309
12.52,6.9333333333331e-05,210.59189368769,4.300934662235e-05,4.300934662235e-05,6.9333333333331e-05,210.59189368785
12.53,6.9416666666665e-05,210.49665559245,4.3104584717588e-05,4.3104584717588e-05,6.9416666666665e-05,210.49665559262
12.54,6.9499999999998e-05,210.40141749721,4.3199822812826e-05,4.3199822812826e-05,6.9499999999998e-05,210.40141749738
12.55,6.9583333333331e-05,210.30617940197,4.3295060908064e-05,4.3295060908064e-05,6.9583333333331e-05,210.30617940214
12.56,6.9666666666665e-05,210.21094130674,4.3390299003302e-05,4.3390299003302e-05,6.9666666666665e-05,210.2109413069
12.57,6.9749999999998e-05,210.1157032115,4.348553709854e-05,4.348553709854e-05,6.9749999999998e-05,210.11570321166
12.58,6.9833333333331e-05,210.02046511626,4.3580775193778e-05,4.3580775193778e-05,6.9833333333331e-05,210.02046511643
12.59,6.9916666666665e-05,209.92522702102,4.3676013289016e-05,4.3676013289016e-05,6.9916666666665e-05,209.92522702119
12.6,6.9999999999998e-05,209.82998892578,4.3771251384254e-05,4.3771251384254e-05,6.9999999999998e-05,209.82998892595
12.61,7.0083333333331e-05,209.73475083055,4.3866489479493e-05,4.3866489479493e-05,7.0083333333331e-05,209.73475083071
12.62,7.0166666666665e-05,209.63951273531,4.3961727574731e-05,4.3961727574731e-05,7.0166666666665e-05,209.63951273547
12.63,7.0249999999998e-05,209.54427464007,4.4056965669969e-05,4.4056965669969e-05,7.0249999999998e-05,209.54427464024
12.64,7.0333333333331e-05,209.44903654483,4.4152203765207e-05,4.4152203765207e-05,7.0333333333331e-05,209.449036545
12.65,7.0416666666665e-05,209.35379844959,4.4247441860445e-05,4.4247441860445e-05,7.0416666666665e-05,209.35379844976
12.66,7.0499999999998e-05,209.25856035435,4.4342679955683e-05,4.4342679955683e-05,7.0499999999998e-05,209.25856035452
12.67,7.0583333333331e-05,209.16332225912,4.4437918050921e-05,4.4437918050921e-05,7.0583333333331e-05,209.16332225928
12.68,7.0666666666665e-05,209.06808416388,4.4533156146159e-05,4.4533156146159e-05,7.0666666666665e-05,209.06808416405
12.69,7.0749999999998e-05,208.97284606864,4.4628394241397e-05,4.4628394241397e-05,7.0749999999998e-05,208.97284606881
12.7,7.0833333333331e-05,208.8776079734,4.4723632336635e-05,4.4723632336635e-05,7.0833333333331e-05,208.87760797357
12.71,7.0916666666665e-05,208.78236987816,4.4818870431873e-05,4.4818870431873e-05,7.0916666666665e-05,208.78236987833
12.72,7.0999999999998e-05,208.68713178293,4.4914108527111e-05,4.4914108527111e-05,7.0999999999998e-05,208.68713178309
12.73,7.1083333333331e-05,208.59189368769,4.500934662235e-05,4.500934662235e-05,7.1083333333331e-05,208.59189368786
12.74,7.1166666666665e-05,208.49665559245,4.5104584717588e-05,4.5104584717588e-05,7.1166666666665e-05,208.49665559262
12.75,7.1249999999998e-05,208.40141749721,4.5199822812826e-05,4.5199822812826e-05,7.1249999999998e-05,208.40141749738
12.76,7.1333333333331e-05,208.30617940197,4.5295060908064e-05,4.5295060908064e-05,7.1333333333331e-05,208.30617940214
12.77,7.1416666666665e-05,208.21094130674,4.5390299003302e-05,4.5390299003302e-05,7.1416666666665e-05,208.2109413069
12.78,7.1499999999998e-05,208.1157032115,4.548553709854e-05,4.548553709854e-05,7.1499999999998e-05,208.11570321167
12.79,7.1583333333331e-05,208.02046511626,4.5580775193778e-05,4.5580775193778e-05,7.1583333333331e-05,208.02046511643
12.8,7.1666666666665e-05,207.92522702102,4.5676013289016e-05,4.5676013289016e-05,7.1666666666665e-05,207.92522702119
12.81,7.1749999999998e-05,207.82998892578,4.5771251384254e-05,4.5771251384254e-05,7.1749999999998e-05,207.82998892595
12.82,7.1833333333331e-05,207.73475083055,4.5866489479492e-05,4.5866489479492e-05,7.1833333333331e-05,207.73475083071
12.83,7.1916666666665e-05,207.63951273531,4.596172757473e-05,4.596172757473e-05,7.1916666666665e-05,207.63951273548
12.84,7.1999999999998e-05,207.54427464007,4.6056965669969e-05,4.6056965669969e-05,7.1999999999998e-05,207.54427464024
12.85,7.2083333333331e-05,207.44903654483,4.6152203765207e-05,4.6152203765207e-05,7.2083333333331e-05,207.449036545
12.86,7.2166666666665e-05,207.35379844959,4.6247441860445e-05,4.6247441860445e-05,7.2166666666665e-05,207.35379844976
12.87,7.2249999999998e-05,207.25856035436,4.6342679955683e-05,4.6342679955683e-05,7.2249999999998e-05,207.25856035452
12.88,7.2333333333331e-05,207.16332225912,4.6437918050921e-05,4.6437918050921e-05,7.2333333333331e-05,207.16332225928
12.89,7.2416666666665e-05,207.06808416388,4.6533156146159e-05,4.6533156146159e-05,7.2416666666665e-05,207.06808416405
12.9,7.2499999999998e-05,206.97284606864,4.6628394241397e-05,4.6628394241397e-05,7.2499999999998e-05,206.97284606881
12.91,7.2583333333331e-05,206.8776079734,4.6723632336635e-05,4.6723632336635e-05,7.2583333333331e-05,206.87760797357
12.92,7.2666666666665e-05,206.78236987816,4.6818870431873e-05,4.6818870431873e-05,7.2666666666665e-05,206.78236987833
12.93,7.2749999999998e-05,206.68713178293,4.6914108527111e-05,4.6914108527111e-05,7.2749999999998e-05,206.68713178309
12.94,7.2833333333331e-05,206.59189368769,4.7009346622349e-05,4.7009346622349e-05,7.2833333333331e-05,206.59189368786
12.95,7.2916666666665e-05,206.49665559245,4.7104584717587e-05,4.7104584717587e-05,7.2916666666665e-05,206.49665559262
12.96,7.2999999999998e-05,206.40141749721,4.7199822812826e-05,4.7199822812826e-05,7.2999999999998e-05,206.40141749738
12.97,7.3083333333331e-05,206.30617940197,4.7295060908064e-05,4.7295060908064e-05,7.3083333333331e-05,206.30617940214
12.98,7.3166666666665e-05,206.21094130674,4.7390299003302e-05,4.7390299003302e-05,7.3166666666665e-05,206.2109413069
12.99,7.3249999999998e-05,206.1157032115,4.748553709854e-05,4.748553709854e-05,7.3249999999998e-05,206.11570321167
13,7.3333333333331e-05,206.02046511626,4.7580775193778e-05,4.7580775193778e-05,7.3333333333331e-05,206.02046511643
13.01,7.3416666666665e-05,205.92522702102,4.7676013289016e-05,4.7676013289016e-05,7.3416666666665e-05,205.92522702119
13.02,7.3499999999998e-05,205.82998892578,4.7771251384254e-05,4.7771251384254e-05,7.3499999999998e-05,205.82998892595
13.03,7.3583333333331e-05,205.73475083055,4.7866489479492e-05,4.7866489479492e-05,7.3583333333331e-05,205.73475083071
13.04,7.3666666666665e-05,205.63951273531,4.796172757473e-05,4.796172757473e-05,7.3666666666665e-05,205.63951273548
13.05,7.3749999999998e-05,205.54427464007,4.8056965669968e-05,4.8056965669968e-05,7.3749999999998e-05,205.54427464024
13.06,7.3833333333331e-05,205.44903654483,4.8152203765206e-05,4.8152203765206e-05,7.3833333333331e-05,205.449036545
13.07,7.3916666666665e-05,205.35379844959,4.8247441860444e-05,4.8247441860444e-05,7.3916666666665e-05,205.35379844976
13.08,7.3999999999998e-05,205.25856035436,4.8342679955683e-05,4.8342679955683e-05,7.3999999999998e-05,205.25856035452
13.09,7.4083333333331e-05,205.16332225912,4.8437918050921e-05,4.8437918050921e-05,7.4083333333331e-05,205.16332225929
13.1,7.4166666666665e-05,205.06808416388,4.8533156146159e-05,4.8533156146159e-05,7.4166666666665e-05,205.06808416405
13.11,7.4249999999998e-05,204.97284606864,4.8628394241397e-05,4.8628394241397e-05,7.4249999999998e-05,204.97284606881
13.12,7.4333333333331e-05,204.8776079734,4.8723632336635e-05,4.8723632336635e-05,7.4333333333331e-05,204.87760797357
13.13,7.4416666666665e-05,204.78236987816,4.8818870431873e-05,4.8818870431873e-05,7.4416666666665e-05,204.78236987833
13.14,7.4499999999998e-05,204.68713178293,4.8914108527111e-05,4.8914108527111e-05,7.4499999999998e-05,204.6871317831
13.15,7.4583333333331e-05,204.59189368769,4.9009346622349e-05,4.9009346622349e-05,7.4583333333331e-05,204.59189368786
13.16,7.4666666666665e-05,204.49665559245,4.9104584717587e-05,4.9104584717587e-05,7.4666666666665e-05,204.49665559262
13.17,7.4749999999998e-05,204.40141749721,4.9199822812825e-05,4.9199822812825e-05,7.4749999999998e-05,204.40141749738
13.18,7.4833333333331e-05,204.30617940197,4.9295060908063e-05,4.9295060908063e-05,7.4833333333331e-05,204.30617940214
13.19,7.4916666666665e-05,204.21094130674,4.9390299003302e-05,4.9390299003302e-05,7.4916666666665e-05,204.21094130691
13.2,7.4999999999998e-05,204.1157032115,4.948553709854e-05,4.948553709854e-05,7.4999999999998e-05,204.11570321167
13.21,7.5083333333331e-05,204.02046511626,4.9580775193778e-05,4.9580775193778e-05,7.5083333333331e-05,204.02046511643
13.22,7.5166666666665e-05,203.92522702102,4.9676013289016e-05,4.9676013289016e-05,7.5166666666665e-05,203.92522702119
13.23,7.5249999999998e-05,203.82998892578,4.9771251384254e-05,4.9771251384254e-05,7.5249999999998e-05,203.82998892595
13.24,7.5333333333331e-05,203.73475083055,4.9866489479492e-05,4.9866489479492e-05,7.5333333333331e-05,203.73475083072
13.25,7.5416666666665e-05,203.63951273531,4.996172757473e-05,4.996172757473e-05,7.5416666666665e-05,203.63951273548
13.26,7.5499999999998e-05,203.54427464007,5.0056965669968e-05,5.0056965669968e-05,7.5499999999998e-05,203.54427464024
13.27,7.5583333333331e-05,203.44903654483,5.0152203765206e-05,5.0152203765206e-05,7.5583333333331e-05,203.449036545
13.28,7.5666666666665e-05,203.35379844959,5.0247441860444e-05,5.0247441860444e-05,7.5666666666665e-05,203.35379844976
13.29,7.5749999999998e-05,203.25856035436,5.0342679955682e-05,5.0342679955682e-05,7.5749999999998e-05,203.25856035453
13.3,7.5833333333331e-05,203.16332225912,5.043791805092e-05,5.043791805092e-05,7.5833333333331e-05,203.16332225929
13.31,7.5916666666665e-05,203.06808416388,5.0533156146159e-05,5.0533156146159e-05,7.5916666666665e-05,203.06808416405
13.32,7.5999999999998e-05,202.97284606864,5.0628394241397e-05,5.0628394241397e-05,7.5999999999998e-05,202.97284606881
13.33,7.6083333333331e-05,202.8776079734,5.0723632336635e-05,5.0723632336635e-05,7.6083333333331e-05,202.87760797357
13.34,7.6166666666665e-05,202.78236987816,5.0818870431873e-05,5.0818870431873e-05,7.6166666666665e-05,202.78236987834
13.35,7.6249999999998e-05,202.68713178293,5.0914108527111e-05,5.0914108527111e-05,7.6249999999998e-05,202.6871317831
13.36,7.6333333333331e-05,202.59189368769,5.1009346622349e-05,5.1009346622349e-05,7.6333333333331e-05,202.59189368786
13.37,7.6416666666665e-05,202.49665559245,5.1104584717587e-05,5.1104584717587e-05,7.6416666666665e-05,202.49665559262
13.38,7.6499999999998e-05,202.40141749721,5.1199822812825e-05,5.1199822812825e-05,7.6499999999998e-05,202.40141749738
13.39,7.6583333333331e-05,202.30617940197,5.1295060908063e-05,5.1295060908063e-05,7.6583333333331e-05,202.30617940215
13.4,7.6666666666665e-05,202.21094130674,5.1390299003301e-05,5.1390299003301e-05,7.6666666666665e-05,202.21094130691
13.41,7.6749999999998e-05,202.1157032115,5.1485537098539e-05,5.1485537098539e-05,7.6749999999998e-05,202.11570321167
13.42,7.6833333333331e-05,202.02046511626,5.1580775193777e-05,5.1580775193777e-05,7.6833333333331e-05,202.02046511643
13.43,7.6916666666665e-05,201.92522702102,5.1676013289016e-05,5.1676013289016e-05,7.6916666666665e-05,201.92522702119
13.44,7.6999999999998e-05,201.82998892578,5.1771251384254e-05,5.1771251384254e-05,7.6999999999998e-05,201.82998892596
13.45,7.7083333333331e-05,201.73475083055,5.1866489479492e-05,5.1866489479492e-05,7.7083333333331e-05,201.73475083072
13.46,7.7166666666665e-05,201.63951273531,5.196172757473e-05,5.196172757473e-05,7.7166666666665e-05,201.63951273548
13.47,7.7249999999998e-05,201.54427464007,5.2056965669968e-05,5.2056965669968e-05,7.7249999999998e-05,201.54427464024
13.48,7.7333333333331e-05,201.44903654483,5.2152203765206e-05,5.2152203765206e-05,7.7333333333331e-05,201.449036545
13.49,7.7416666666665e-05,201.35379844959,5.2247441860444e-05,5.2247441860444e-05,7.7416666666665e-05,201.35379844977
13.5,7.7499999999998e-05,201.25856035436,5.2342679955682e-05,5.2342679955682e-05,7.7499999999998e-05,201.25856035453
13.51,7.7583333333331e-05,201.16332225912,5.243791805092e-05,5.243791805092e-05,7.7583333333331e-05,201.16332225929
13.52,7.7666666666665e-05,201.06808416388,5.2533156146158e-05,5.2533156146158e-05,7.7666666666665e-05,201.06808416405
13.53,7.7749999999998e-05,200.97284606864,5.2628394241396e-05,5.2628394241396e-05,7.7749999999998e-05,200.97284606881
13.54,7.7833333333331e-05,200.8776079734,5.2723632336635e-05,5.2723632336635e-05,7.7833333333331e-05,200.87760797357
13.55,7.7916666666665e-05,200.78236987817,5.2818870431873e-05,5.2818870431873e-05,7.7916666666665e-05,200.78236987834
13.56,7.7999999999998e-05,200.68713178293,5.2914108527111e-05,5.2914108527111e-05,7.7999999999998e-05,200.6871317831
13.57,7.8083333333331e-05,200.59189368769,5.3009346622349e-05,5.3009346622349e-05,7.8083333333331e-05,200.59189368786
13.58,7.8166666666665e-05,200.49665559245,5.3104584717587e-05,5.3104584717587e-05,7.8166666666665e-05,200.49665559262
13.59,7.8249999999998e-05,200.40141749721,5.3199822812825e-05,5.3199822812825e-05,7.8249999999998e-05,200.40141749738
13.6,7.8333333333331e-05,200.30617940197,5.3295060908063e-05,5.3295060908063e-05,7.8333333333331e-05,200.30617940215
13.61,7.8416666666665e-05,200.21094130674,5.3390299003301e-05,5.3390299003301e-05,7.8416666666665e-05,200.21094130691
13.62,7.8499999999998e-05,200.1157032115,5.3485537098539e-05,5.3485537098539e-05,7.8499999999998e-05,200.11570321167
13.63,7.8583333333331e-05,200.02046511626,5.3580775193777e-05,5.3580775193777e-05,7.8583333333331e-05,200.02046511643
13.64,7.8666666666665e-05,199.92522702102,5.3676013289015e-05,5.3676013289015e-05,7.8666666666665e-05,199.92522702119
13.65,7.8749999999998e-05,199.82998892578,5.3771251384253e-05,5.3771251384253e-05,7.8749999999998e-05,199.82998892596
13.66,7.8833333333331e-05,199.73475083055,5.3866489479492e-05,5.3866489479492e-05,7.8833333333331e-05,199.73475083072
13.67,7.8916666666665e-05,199.63951273531,5.396172757473e-05,5.396172757473e-05,7.8916666666665e-05,199.63951273548
13.68,7.8999999999998e-05,199.54427464007,5.4056965669968e-05,5.4056965669968e-05,7.8999999999998e-05,199.54427464024
13.69,7.9083333333331e-05,199.44903654483,5.4152203765206e-05,5.4152203765206e-05,7.9083333333331e-05,199.449036545
13.7,7.9166666666665e-05,199.35379844959,5.4247441860444e-05,5.4247441860444e-05,7.9166666666665e-05,199.35379844977
13.71,7.9249999999998e-05,199.25856035436,5.4342679955682e-05,5.4342679955682e-05,7.9249999999998e-05,199.25856035453
13.72,7.9333333333331e-05,199.16332225912,5.443791805092e-05,5.443791805092e-05,7.9333333333331e-05,199.16332225929
13.73,7.9416666666665e-05,199.06808416388,5.4533156146158e-05,5.4533156146158e-05,7.9416666666665e-05,199.06808416405
13.74,7.9499999999998e-05,198.97284606864,5.4628394241396e-05,5.4628394241396e-05,7.9499999999998e-05,198.97284606881
13.75,7.9583333333331e-05,198.8776079734,5.4723632336634e-05,5.4723632336634e-05,7.9583333333331e-05,198.87760797358
13.76,7.9666666666665e-05,198.78236987817,5.4818870431872e-05,5.4818870431872e-05,7.9666666666665e-05,198.78236987834
13.77,7.9749999999998e-05,198.68713178293,5.491410852711e-05,5.491410852711e-05,7.9749999999998e-05,198.6871317831
13.78,7.9833333333331e-05,198.59189368769,5.5009346622349e-05,5.5009346622349e-05,7.9833333333331e-05,198.59189368786
13.79,7.9916666666665e-05,198.49665559245,5.5104584717587e-05,5.5104584717587e-05,7.9916666666665e-05,198.49665559262
13.8,7.9999999999998e-05,198.40141749721,5.5199822812825e-05,5.5199822812825e-05,7.9999999999998e-05,198.40141749739
13.81,8.0083333333331e-05,198.30617940197,5.5295060908063e-05,5.5295060908063e-05,8.0083333333331e-05,198.30617940215
13.82,8.0166666666665e-05,198.21094130674,5.5390299003301e-05,5.5390299003301e-05,8.0166666666665e-05,198.21094130691
13.83,8.0249999999998e-05,198.1157032115,5.5485537098539e-05,5.5485537098539e-05,8.0249999999998e-05,198.11570321167
13.84,8.0333333333331e-05,198.02046511626,5.5580775193777e-05,5.5580775193777e-05,8.0333333333331e-05,198.02046511643
13.85,8.0416666666665e-05,197.92522702102,5.5676013289015e-05,5.5676013289015e-05,8.0416666666665e-05,197.9252270212
13.86,8.0499999999998e-05,197.82998892578,5.5771251384253e-05,5.5771251384253e-05,8.0499999999998e-05,197.82998892596
13.87,8.0583333333331e-05,197.73475083055,5.5866489479491e-05,5.5866489479491e-05,8.0583333333331e-05,197.73475083072
13.88,8.0666666666665e-05,197.63951273531,5.5961727574729e-05,5.5961727574729e-05,8.0666666666665e-05,197.63951273548
13.89,8.0749999999998e-05,197.54427464007,5.6056965669967e-05,5.6056965669967e-05,8.0749999999998e-05,197.54427464024
13.9,8.0833333333331e-05,197.44903654483,5.6152203765206e-05,5.6152203765206e-05,8.0833333333331e-05,197.44903654501
13.91,8.0916666666665e-05,197.35379844959,5.6247441860444e-05,5.6247441860444e-05,8.0916666666665e-05,197.35379844977
13.92,8.0999999999998e-05,197.25856035436,5.6342679955682e-05,5.6342679955682e-05,8.0999999999998e-05,197.25856035453
13.93,8.1083333333331e-05,197.16332225912,5.643791805092e-05,5.643791805092e-05,8.1083333333331e-05,197.16332225929
13.94,8.1166666666665e-05,197.06808416388,5.6533156146158e-05,5.6533156146158e-05,8.1166666666665e-05,197.06808416405
13.95,8.1249999999998e-05,196.97284606864,5.6628394241396e-05,5.6628394241396e-05,8.1249999999998e-05,196.97284606882
13.96,8.1333333333331e-05,196.8776079734,5.6723632336634e-05,5.6723632336634e-05,8.1333333333331e-05,196.87760797358
13.97,8.1416666666665e-05,196.78236987817,5.6818870431872e-05,5.6818870431872e-05,8.1416666666665e-05,196.78236987834
13.98,8.1499999999998e-05,196.68713178293,5.691410852711e-05,5.691410852711e-05,8.1499999999998e-05,196.6871317831
13.99,8.1583333333331e-05,196.59189368769,5.7009346622348e-05,5.7009346622348e-05,8.1583333333331e-05,196.59189368786
14,8.1666666666665e-05,196.49665559245,5.7104584717586e-05,5.7104584717586e-05,8.1666666666665e-05,196.49665559263
14.01,8.1749999999998e-05,196.40141749721,5.7199822812825e-05,5.7199822812825e-05,8.1749999999998e-05,196.40141749739
14.02,8.1833333333331e-05,196.30617940198,5.7295060908063e-05,5.7295060908063e-05,8.1833333333331e-05,196.30617940215
14.03,8.1916666666665e-05,196.21094130674,5.7390299003301e-05,5.7390299003301e-05,8.1916666666665e-05,196.21094130691
14.04,8.1999999999998e-05,196.1157032115,5.7485537098539e-05,5.7485537098539e-05,8.1999999999998e-05,196.11570321167
14.05,8.2083333333331e-05,196.02046511626,5.7580775193777e-05,5.7580775193777e-05,8.2083333333331e-05,196.02046511644
14.06,8.2166666666665e-05,195.92522702102,5.7676013289015e-05,5.7676013289015e-05,8.2166666666665e-05,195.9252270212
14.07,8.2249999999998e-05,195.82998892578,5.7771251384253e-05,5.7771251384253e-05,8.2249999999998e-05,195.82998892596
14.08,8.2333333333331e-05,195.73475083055,5.7866489479491e-05,5.7866489479491e-05,8.2333333333331e-05,195.73475083072
14.09,8.2416666666665e-05,195.63951273531,5.7961727574729e-05,5.7961727574729e-05,8.2416666666665e-05,195.63951273548
14.1,8.2499999999998e-05,195.54427464007,5.8056965669967e-05,5.8056965669967e-05,8.2499999999998e-05,195.54427464025
14.11,8.2583333333331e-05,195.44903654483,5.8152203765205e-05,5.8152203765205e-05,8.2583333333331e-05,195.44903654501
14.12,8.2666666666665e-05,195.35379844959,5.8247441860443e-05,5.8247441860443e-05,8.2666666666665e-05,195.35379844977
14.13,8.2749999999998e-05,195.25856035436,5.8342679955682e-05,5.8342679955682e-05,8.2749999999998e-05,195.25856035453
14.14,8.2833333333331e-05,195.16332225912,5.843791805092e-05,5.843791805092e-05,8.2833333333331e-05,195.16332225929
14.15,8.2916666666665e-05,195.06808416388,5.8533156146158e-05,5.8533156146158e-05,8.2916666666665e-05,195.06808416406
14.16,8.2999999999998e-05,194.97284606864,5.8628394241396e-05,5.8628394241396e-05,8.2999999999998e-05,194.97284606882
14.17,8.3083333333331e-05,194.8776079734,5.8723632336634e-05,5.8723632336634e-05,8.3083333333331e-05,194.87760797358
14.18,8.3166666666665e-05,194.78236987817,5.8818870431872e-05,5.8818870431872e-05,8.3166666666665e-05,194.78236987834
14.19,8.3249999999998e-05,194.68713178293,5.891410852711e-05,5.891410852711e-05,8.3249999999998e-05,194.6871317831
14.2,8.3333333333331e-05,194.59189368769,5.9009346622348e-05,5.9009346622348e-05,8.3333333333331e-05,194.59189368787
14.21,8.3416666666665e-05,194.49665559245,5.9104584717586e-05,5.9104584717586e-05,8.3416666666665e-05,194.49665559263
14.22,8.3499999999998e-05,194.40141749721,5.9199822812824e-05,5.9199822812824e-05,8.3499999999998e-05,194.40141749739
14.23,8.3583333333331e-05,194.30617940198,5.9295060908062e-05,5.9295060908062e-05,8.3583333333331e-05,194.30617940215
14.24,8.3666666666665e-05,194.21094130674,5.93902990033e-05,5.93902990033e-05,8.3666666666665e-05,194.21094130691
14.25,8.3749999999998e-05,194.1157032115,5.9485537098539e-05,5.9485537098539e-05,8.3749999999998e-05,194.11570321168
14.26,8.3833333333331e-05,194.02046511626,5.9580775193777e-05,5.9580775193777e-05,8.3833333333331e-05,194.02046511644
14.27,8.3916666666665e-05,193.92522702102,5.9676013289015e-05,5.9676013289015e-05,8.3916666666665e-05,193.9252270212
14.28,8.3999999999998e-05,193.82998892579,5.9771251384253e-05,5.9771251384253e-05,8.3999999999998e-05,193.82998892596
14.29,8.4083333333331e-05,193.73475083055,5.9866489479491e-05,5.9866489479491e-05,8.4083333333331e-05,193.73475083072
14.3,8.4166666666664e-05,193.63951273531,5.9961727574729e-05,5.9961727574729e-05,8.4166666666664e-05,193.63951273548
14.31,8.4249999999998e-05,193.54427464007,6.0056965669967e-05,6.0056965669967e-05,8.4249999999998e-05,193.54427464025
14.32,8.4333333333331e-05,193.44903654483,6.0152203765205e-05,6.0152203765205e-05,8.4333333333331e-05,193.44903654501
14.33,8.4416666666664e-05,193.35379844959,6.0247441860443e-05,6.0247441860443e-05,8.4416666666664e-05,193.35379844977
14.34,8.4499999999998e-05,193.25856035436,6.0342679955681e-05,6.0342679955681e-05,8.4499999999998e-05,193.25856035453
14.35,8.4583333333331e-05,193.16332225912,6.0437918050919e-05,6.0437918050919e-05,8.4583333333331e-05,193.16332225929
14.36,8.4666666666664e-05,193.06808416388,6.0533156146157e-05,6.0533156146157e-05,8.4666666666665e-05,193.06808416406
14.37,8.4749999999998e-05,192.97284606864,6.0628394241396e-05,6.0628394241396e-05,8.4749999999998e-05,192.97284606882
14.38,8.4833333333331e-05,192.8776079734,6.0723632336634e-05,6.0723632336634e-05,8.4833333333331e-05,192.87760797358
14.39,8.4916666666664e-05,192.78236987817,6.0818870431872e-05,6.0818870431872e-05,8.4916666666664e-05,192.78236987834
14.4,8.4999999999998e-05,192.68713178293,6.091410852711e-05,6.091410852711e-05,8.4999999999998e-05,192.6871317831
14.41,8.5083333333331e-05,192.59189368769,6.1009346622348e-05,6.1009346622348e-05,8.5083333333331e-05,192.59189368787
14.42,8.5166666666664e-05,192.49665559245,6.1104584717586e-05,6.1104584717586e-05,8.5166666666664e-05,192.49665559263
14.43,8.5249999999998e-05,192.40141749721,6.1199822812824e-05,6.1199822812824e-05,8.5249999999998e-05,192.40141749739
14.44,8.5333333333331e-05,192.30617940198,6.1295060908062e-05,6.1295060908062e-05,8.5333333333331e-05,192.30617940215
14.45,8.5416666666664e-05,192.21094130674,6.13902990033e-05,6.13902990033e-05,8.5416666666664e-05,192.21094130691
14.46,8.5499999999998e-05,192.1157032115,6.1485537098538e-05,6.1485537098538e-05,8.5499999999998e-05,192.11570321168
14.47,8.5583333333331e-05,192.02046511626,6.1580775193776e-05,6.1580775193776e-05,8.5583333333331e-05,192.02046511644
14.48,8.5666666666664e-05,191.92522702102,6.1676013289015e-05,6.1676013289015e-05,8.5666666666664e-05,191.9252270212
14.49,8.5749999999998e-05,191.82998892579,6.1771251384253e-05,6.1771251384253e-05,8.5749999999998e-05,191.82998892596
14.5,8.5833333333331e-05,191.73475083055,6.1866489479491e-05,6.1866489479491e-05,8.5833333333331e-05,191.73475083072
14.51,8.5916666666664e-05,191.63951273531,6.1961727574729e-05,6.1961727574729e-05,8.5916666666664e-05,191.63951273549
14.52,8.5999999999998e-05,191.54427464007,6.2056965669967e-05,6.2056965669967e-05,8.5999999999998e-05,191.54427464025
14.53,8.6083333333331e-05,191.44903654483,6.2152203765205e-05,6.2152203765205e-05,8.6083333333331e-05,191.44903654501
14.54,8.6166666666664e-05,191.35379844959,6.2247441860443e-05,6.2247441860443e-05,8.6166666666664e-05,191.35379844977
14.55,8.6249999999998e-05,191.25856035436,6.2342679955681e-05,6.2342679955681e-05,8.6249999999998e-05,191.25856035453
14.56,8.6333333333331e-05,191.16332225912,6.2437918050919e-05,6.2437918050919e-05,8.6333333333331e-05,191.1633222593
14.57,8.6416666666664e-05,191.06808416388,6.2533156146157e-05,6.2533156146157e-05,8.6416666666664e-05,191.06808416406
14.58,8.6499999999998e-05,190.97284606864,6.2628394241395e-05,6.2628394241395e-05,8.6499999999998e-05,190.97284606882
14.59,8.6583333333331e-05,190.8776079734,6.2723632336633e-05,6.2723632336633e-05,8.6583333333331e-05,190.87760797358
14.6,8.6666666666664e-05,190.78236987817,6.2818870431871e-05,6.2818870431871e-05,8.6666666666664e-05,190.78236987834
14.61,8.6749999999998e-05,190.68713178293,6.291410852711e-05,6.291410852711e-05,8.6749999999998e-05,190.68713178311
14.62,8.6833333333331e-05,190.59189368769,6.3009346622348e-05,6.3009346622348e-05,8.6833333333331e-05,190.59189368787
14.63,8.6916666666664e-05,190.49665559245,6.3104584717586e-05,6.3104584717586e-05,8.6916666666664e-05,190.49665559263
14.64,8.6999999999998e-05,190.40141749721,6.3199822812824e-05,6.3199822812824e-05,8.6999999999998e-05,190.40141749739
14.65,8.7083333333331e-05,190.30617940198,6.3295060908062e-05,6.3295060908062e-05,8.7083333333331e-05,190.30617940215
14.66,8.7166666666664e-05,190.21094130674,6.33902990033e-05,6.33902990033e-05,8.7166666666664e-05,190.21094130692
14.67,8.7249999999998e-05,190.1157032115,6.3485537098538e-05,6.3485537098538e-05,8.7249999999998e-05,190.11570321168
14.68,8.7333333333331e-05,190.02046511626,6.3580775193776e-05,6.3580775193776e-05,8.7333333333331e-05,190.02046511644
14.69,8.7416666666664e-05,189.92522702102,6.3676013289014e-05,6.3676013289014e-05,8.7416666666664e-05,189.9252270212
14.7,8.7499999999998e-05,189.82998892579,6.3771251384252e-05,6.3771251384252e-05,8.7499999999998e-05,189.82998892596
14.71,8.7583333333331e-05,189.73475083055,6.386648947949e-05,6.386648947949e-05,8.7583333333331e-05,189.73475083073
14.72,8.7666666666664e-05,189.63951273531,6.3961727574729e-05,6.3961727574729e-05,8.7666666666664e-05,189.63951273549
14.73,8.7749999999998e-05,189.54427464007,6.4056965669967e-05,6.4056965669967e-05,8.7749999999998e-05,189.54427464025
14.74,8.7833333333331e-05,189.44903654483,6.4152203765205e-05,6.4152203765205e-05,8.7833333333331e-05,189.44903654501
14.75,8.7916666666664e-05,189.3537984496,6.4247441860443e-05,6.4247441860443e-05,8.7916666666664e-05,189.35379844977
14.76,8.7999999999998e-05,189.25856035436,6.4342679955681e-05,6.4342679955681e-05,8.7999999999998e-05,189.25856035454
14.77,8.8083333333331e-05,189.16332225912,6.4437918050919e-05,6.4437918050919e-05,8.8083333333331e-05,189.1633222593
14.78,8.8166666666664e-05,189.06808416388,6.4533156146157e-05,6.4533156146157e-05,8.8166666666664e-05,189.06808416406
14.79,8.8249999999998e-05,188.97284606864,6.4628394241395e-05,6.4628394241395e-05,8.8249999999998e-05,188.97284606882
14.8,8.8333333333331e-05,188.8776079734,6.4723632336633e-05,6.4723632336633e-05,8.8333333333331e-05,188.87760797358
14.81,8.8416666666664e-05,188.78236987817,6.4818870431871e-05,6.4818870431871e-05,8.8416666666664e-05,188.78236987835
14.82,8.8499999999998e-05,188.68713178293,6.4914108527109e-05,6.4914108527109e-05,8.8499999999998e-05,188.68713178311
14.83,8.8583333333331e-05,188.59189368769,6.5009346622347e-05,6.5009346622347e-05,8.8583333333331e-05,188.59189368787
14.84,8.8666666666664e-05,188.49665559245,6.5104584717586e-05,6.5104584717586e-05,8.8666666666664e-05,188.49665559263
14.85,8.8749999999998e-05,188.40141749721,6.5199822812824e-05,6.5199822812824e-05,8.8749999999998e-05,188.40141749739
14.86,8.8833333333331e-05,188.30617940198,6.5295060908062e-05,6.5295060908062e-05,8.8833333333331e-05,188.30617940216
14.87,8.8916666666664e-05,188.21094130674,6.53902990033e-05,6.53902990033e-05,8.8916666666664e-05,188.21094130692
14.88,8.8999999999998e-05,188.1157032115,6.5485537098538e-05,6.5485537098538e-05,8.8999999999998e-05,188.11570321168
14.89,8.9083333333331e-05,188.02046511626,6.5580775193776e-05,6.5580775193776e-05,8.9083333333331e-05,188.02046511644
14.9,8.9166666666664e-05,187.92522702102,6.5676013289014e-05,6.5676013289014e-05,8.9166666666664e-05,187.9252270212
14.91,8.9249999999998e-05,187.82998892579,6.5771251384252e-05,6.5771251384252e-05,8.9249999999998e-05,187.82998892597
14.92,8.9333333333331e-05,187.73475083055,6.586648947949e-05,6.586648947949e-05,8.9333333333331e-05,187.73475083073
14.93,8.9416666666664e-05,187.63951273531,6.5961727574728e-05,6.5961727574728e-05,8.9416666666664e-05,187.63951273549
14.94,8.9499999999998e-05,187.54427464007,6.6056965669966e-05,6.6056965669966e-05,8.9499999999998e-05,187.54427464025
14.95,8.9583333333331e-05,187.44903654483,6.6152203765204e-05,6.6152203765204e-05,8.9583333333331e-05,187.44903654501
14.96,8.9666666666664e-05,187.3537984496,6.6247441860443e-05,6.6247441860443e-05,8.9666666666664e-05,187.35379844978
14.97,8.9749999999998e-05,187.25856035436,6.6342679955681e-05,6.6342679955681e-05,8.9749999999998e-05,187.25856035454
14.98,8.9833333333331e-05,187.16332225912,6.6437918050919e-05,6.6437918050919e-05,8.9833333333331e-05,187.1633222593
14.99,8.9916666666664e-05,187.06808416388,6.6533156146157e-05,6.6533156146157e-05,8.9916666666664e-05,187.06808416406
15,8.9999999999998e-05,186.97284606864,6.6628394241395e-05,6.6628394241395e-05,8.9999999999998e-05,186.97284606882
15.01,8.9816666666672e-05,185.50617940204,6.6628394241395e-05,6.6628394241395e-05,8.9816666666672e-05,185.50617940222
15.02,8.9633333333338e-05,184.03951273537,6.6628394241395e-05,6.6628394241395e-05,8.9633333333338e-05,184.03951273555
15.03,8.9450000000005e-05,182.5728460687,6.6628394241395e-05,6.6628394241395e-05,8.9450000000005e-05,182.57284606888
15.04,8.9266666666672e-05,181.10617940204,6.6628394241395e-05,6.6628394241395e-05,8.9266666666672e-05,181.10617940222
15.05,8.9083333333338e-05,179.63951273537,6.6628394241395e-05,6.6628394241395e-05,8.9083333333338e-05,179.63951273555
15.06,8.8900000000005e-05,178.1728460687,6.6628394241395e-05,6.6628394241395e-05,8.8900000000005e-05,178.17284606888
15.07,8.8716666666672e-05,176.70617940204,6.6628394241395e-05,6.6628394241395e-05,8.8716666666672e-05,176.70617940222
15.08,8.8533333333338e-05,175.23951273537,6.6628394241395e-05,6.6628394241395e-05,8.8533333333338e-05,175.23951273555
15.09,8.8350000000005e-05,173.7728460687,6.6628394241395e-05,6.6628394241395e-05,8.8350000000005e-05,173.77284606888
15.1,8.8166666666672e-05,172.30617940204,6.6628394241395e-05,6.6628394241395e-05,8.8166666666672e-05,172.30617940222
15.11,8.7983333333338e-05,170.83951273537,6.6628394241395e-05,6.6628394241395e-05,8.7983333333338e-05,170.83951273555
15.12,8.7800000000005e-05,169.3728460687,6.6628394241395e-05,6.6628394241395e-05,8.7800000000005e-05,169.37284606888
15.13,8.7616666666672e-05,167.90617940204,6.6628394241395e-05,6.6628394241395e-05,8.7616666666672e-05,167.90617940222
15.14,8.7433333333338e-05,166.43951273537,6.6628394241395e-05,6.6628394241395e-05,8.7433333333338e-05,166.43951273555
15.15,8.7250000000005e-05,164.9728460687,6.6628394241395e-05,6.6628394241395e-05,8.7250000000005e-05,164.97284606888
15.16,8.7066666666672e-05,163.50617940204,6.6628394241395e-05,6.6628394241395e-05,8.7066666666672e-05,163.50617940222
15.17,8.6883333333338e-05,162.03951273537,6.6628394241395e-05,6.6628394241395e-05,8.6883333333338e-05,162.03951273555
15.18,8.6700000000005e-05,160.5728460687,6.6628394241395e-05,6.6628394241395e-05,8.6700000000005e-05,160.57284606888
15.19,8.6516666666672e-05,159.10617940204,6.6628394241395e-05,6.6628394241395e-05,8.6516666666672e-05,159.10617940222
15.2,8.6333333333338e-05,157.63951273537,6.6628394241395e-05,6.6628394241395e-05,8.6333333333338e-05,157.63951273555
15.21,8.6150000000005e-05,156.1728460687,6.6628394241395e-05,6.6628394241395e-05,8.6150000000005e-05,156.17284606888
15.22,8.5966666666672e-05,154.70617940204,6.6628394241395e-05,6.6628394241395e-05,8.5966666666672e-05,154.70617940222
15.23,8.5783333333338e-05,153.23951273537,6.6628394241395e-05,6.6628394241395e-05,8.5783333333338e-05,153.23951273555
15.24,8.5600000000005e-05,151.7728460687,6.6628394241395e-05,6.6628394241395e-05,8.5600000000005e-05,151.77284606888
15.25,8.5416666666672e-05,150.30617940204,6.6628394241395e-05,6.6628394241395e-05,8.5416666666672e-05,150.30617940222
15.26,8.5233333333338e-05,148.83951273537,6.6628394241395e-05,6.6628394241395e-05,8.5233333333338e-05,148.83951273555
15.27,8.5050000000005e-05,147.3728460687,6.6628394241395e-05,6.6628394241395e-05,8.5050000000005e-05,147.37284606888
15.28,8.4866666666672e-05,145.90617940204,6.6628394241395e-05,6.6628394241395e-05,8.4866666666672e-05,145.90617940222
15.29,8.4683333333338e-05,144.43951273537,6.6628394241395e-05,6.6628394241395e-05,8.4683333333338e-05,144.43951273555
15.3,8.4500000000005e-05,142.9728460687,6.6628394241395e-05,6.6628394241395e-05,8.4500000000005e-05,142.97284606888
15.31,8.4316666666672e-05,141.50617940204,6.6628394241395e-05,6.6628394241395e-05,8.4316666666672e-05,141.50617940222
15.32,8.4133333333339e-05,140.03951273537,6.6628394241395e-05,6.6628394241395e-05,8.4133333333338e-05,140.03951273555
15.33,8.3950000000005e-05,138.5728460687,6.6628394241395e-05,6.6628394241395e-05,8.3950000000005e-05,138.57284606888
15.34,8.3766666666672e-05,137.10617940204,6.6628394241395e-05,6.6628394241395e-05,8.3766666666672e-05,137.10617940222
15.35,8.3583333333339e-05,135.63951273537,6.6628394241395e-05,6.6628394241395e-05,8.3583333333339e-05,135.63951273555
15.36,8.3400000000005e-05,134.1728460687,6.6628394241395e-05,6.6628394241395e-05,8.3400000000005e-05,134.17284606888
15.37,8.3216666666672e-05,132.70617940204,6.6628394241395e-05,6.6628394241395e-05,8.3216666666672e-05,132.70617940222
15.38,8.3033333333339e-05,131.23951273537,6.6628394241395e-05,6.6628394241395e-05,8.3033333333339e-05,131.23951273555
15.39,8.2850000000005e-05,129.7728460687,6.6628394241395e-05,6.6628394241395e-05,8.2850000000005e-05,129.77284606888
15.4,8.2666666666672e-05,128.30617940204,6.6628394241395e-05,6.6628394241395e-05,8.2666666666672e-05,128.30617940222
15.41,8.2483333333339e-05,126.83951273537,6.6628394241395e-05,6.6628394241395e-05,8.2483333333339e-05,126.83951273555
15.42,8.2300000000005e-05,125.3728460687,6.6628394241395e-05,6.6628394241395e-05,8.2300000000005e-05,125.37284606888
15.43,8.2116666666672e-05,123.90617940204,6.6628394241395e-05,6.6628394241395e-05,8.2116666666672e-05,123.90617940222
15.44,8.1933333333339e-05,122.43951273537,6.6628394241395e-05,6.6628394241395e-05,8.1933333333339e-05,122.43951273555
15.45,8.1750000000005e-05,120.9728460687,6.6628394241395e-05,6.6628394241395e-05,8.1750000000005e-05,120.97284606888
15.46,8.1566666666672e-05,119.50617940204,6.6628394241395e-05,6.6628394241395e-05,8.1566666666672e-05,119.50617940222
15.47,8.1383333333339e-05,118.03951273537,6.6628394241395e-05,6.6628394241395e-05,8.1383333333339e-05,118.03951273555
15.48,8.1200000000005e-05,116.5728460687,6.6628394241395e-05,6.6628394241395e-05,8.1200000000005e-05,116.57284606888
15.49,8.1016666666672e-05,115.10617940204,6.6628394241395e-05,6.6628394241395e-05,8.1016666666672e-05,115.10617940222
15.5,8.0833333333339e-05,113.63951273537,6.6628394241395e-05,6.6628394241395e-05,8.0833333333339e-05,113.63951273555
15.51,8.0650000000005e-05,112.1728460687,6.6628394241395e-05,6.6628394241395e-05,8.0650000000005e-05,112.17284606888
15.52,8.0466666666672e-05,110.70617940204,6.6628394241395e-05,6.6628394241395e-05,8.0466666666672e-05,110.70617940222
15.53,8.0283333333339e-05,109.23951273537,6.6628394241395e-05,6.6628394241395e-05,8.0283333333339e-05,109.23951273555
15.54,8.0100000000005e-05,107.7728460687,6.6628394241395e-05,6.6628394241395e-05,8.0100000000005e-05,107.77284606888
15.55,7.9916666666672e-05,106.30617940204,6.6628394241395e-05,6.6628394241395e-05,7.9916666666672e-05,106.30617940222
15.56,7.9733333333339e-05,104.83951273537,6.6628394241395e-05,6.6628394241395e-05,7.9733333333339e-05,104.83951273555
15.57,7.9550000000005e-05,103.3728460687,6.6628394241395e-05,6.6628394241395e-05,7.9550000000005e-05,103.37284606888
15.58,7.9366666666672e-05,101.90617940204,6.6628394241395e-05,6.6628394241395e-05,7.9366666666672e-05,101.90617940222
15.59,7.9183333333339e-05,100.43951273537,6.6628394241395e-05,6.6628394241395e-05,7.9183333333339e-05,100.43951273555
15.6,7.9000000000005e-05,98.972846068703,6.6628394241395e-05,6.6628394241395e-05,7.9000000000005e-05,98.972846068884
15.61,7.8816666666672e-05,97.506179402037,6.6628394241395e-05,6.6628394241395e-05,7.8816666666672e-05,97.506179402217
15.62,7.8633333333339e-05,96.03951273537,6.6628394241395e-05,6.6628394241395e-05,7.8633333333339e-05,96.039512735551
15.63,7.8450000000005e-05,94.572846068704,6.6628394241395e-05,6.6628394241395e-05,7.8450000000005e-05,94.572846068884
15.64,7.8266666666672e-05,93.106179402037,6.6628394241395e-05,6.6628394241395e-05,7.8266666666672e-05,93.106179402217
15.65,7.8083333333339e-05,91.63951273537,6.6628394241395e-05,6.6628394241395e-05,7.8083333333339e-05,91.639512735551
15.66,7.7900000000005e-05,90.172846068704,6.6628394241395e-05,6.6628394241395e-05,7.7900000000005e-05,90.172846068884
15.67,7.7716666666672e-05,88.706179402037,6.6628394241395e-05,6.6628394241395e-05,7.7716666666672e-05,88.706179402217
15.68,7.7533333333339e-05,87.23951273537,6.6628394241395e-05,6.6628394241395e-05,7.7533333333339e-05,87.239512735551
15.69,7.7350000000005e-05,85.772846068704,6.6628394241395e-05,6.6628394241395e-05,7.7350000000005e-05,85.772846068884
15.7,7.7166666666672e-05,84.306179402037,6.6628394241395e-05,6.6628394241395e-05,7.7166666666672e-05,84.306179402218
15.71,7.6983333333339e-05,82.839512735371,6.6628394241395e-05,6.6628394241395e-05,7.6983333333339e-05,82.839512735551
15.72,7.6800000000005e-05,81.372846068704,6.6628394241395e-05,6.6628394241395e-05,7.6800000000005e-05,81.372846068884
15.73,7.6616666666672e-05,79.906179402037,6.6628394241395e-05,6.6628394241395e-05,7.6616666666672e-05,79.906179402218
15.74,7.6433333333339e-05,78.439512735371,6.6628394241395e-05,6.6628394241395e-05,7.6433333333339e-05,78.439512735551
15.75,7.6250000000005e-05,76.972846068704,6.6628394241395e-05,6.6628394241395e-05,7.6250000000005e-05,76.972846068885
15.76,7.6066666666672e-05,75.506179402037,6.6628394241395e-05,6.6628394241395e-05,7.6066666666672e-05,75.506179402218
15.77,7.5883333333339e-05,74.039512735371,6.6628394241395e-05,6.6628394241395e-05,7.5883333333339e-05,74.039512735551
15.78,7.5700000000005e-05,72.572846068704,6.6628394241395e-05,6.6628394241395e-05,7.5700000000005e-05,72.572846068885
15.79,7.5516666666672e-05,71.106179402037,6.6628394241395e-05,6.6628394241395e-05,7.5516666666672e-05,71.106179402218
15.8,7.5333333333339e-05,69.639512735371,6.6628394241395e-05,6.6628394241395e-05,7.5333333333339e-05,69.639512735551
15.81,7.5150000000005e-05,68.172846068704,6.6628394241395e-05,6.6628394241395e-05,7.5150000000005e-05,68.172846068885
15.82,7.4966666666672e-05,66.706179402037,6.6628394241395e-05,6.6628394241395e-05,7.4966666666672e-05,66.706179402218
15.83,7.4783333333339e-05,65.239512735371,6.6628394241395e-05,6.6628394241395e-05,7.4783333333339e-05,65.239512735551
15.84,7.4600000000005e-05,63.772846068704,6.6628394241395e-05,6.6628394241395e-05,7.4600000000005e-05,63.772846068885
15.85,7.4416666666672e-05,62.306179402038,6.6628394241395e-05,6.6628394241395e-05,7.4416666666672e-05,62.306179402218
15.86,7.4233333333339e-05,60.839512735371,6.6628394241395e-05,6.6628394241395e-05,7.4233333333339e-05,60.839512735551
15.87,7.4050000000005e-05,59.372846068704,6.6628394241395e-05,6.6628394241395e-05,7.4050000000005e-05,59.372846068885
15.88,7.3866666666672e-05,57.906179402038,6.6628394241395e-05,6.6628394241395e-05,7.3866666666672e-05,57.906179402218
15.89,7.3683333333339e-05,56.439512735371,6.6628394241395e-05,6.6628394241395e-05,7.3683333333339e-05,56.439512735551
15.9,7.3500000000005e-05,54.972846068704,6.6628394241395e-05,6.6628394241395e-05,7.3500000000005e-05,54.972846068885
15.91,7.3316666666672e-05,53.506179402038,6.6628394241395e-05,6.6628394241395e-05,7.3316666666672e-05,53.506179402218
15.92,7.3133333333339e-05,52.039512735371,6.6628394241395e-05,6.6628394241395e-05,7.3133333333339e-05,52.039512735552
15.93,7.2950000000005e-05,50.572846068705,6.6628394241395e-05,6.6628394241395e-05,7.2950000000005e-05,50.572846068885
15.94,7.2766666666672e-05,49.106179402038,6.6628394241395e-05,6.6628394241395e-05,7.2766666666672e-05,49.106179402218
15.95,7.2583333333339e-05,47.639512735371,6.6628394241395e-05,6.6628394241395e-05,7.2583333333339e-05,47.639512735552
15.96,7.2400000000005e-05,46.172846068705,6.6628394241395e-05,6.6628394241395e-05,7.2400000000005e-05,46.172846068885
15.97,7.2216666666672e-05,44.706179402038,6.6628394241395e-05,6.6628394241395e-05,7.2216666666672e-05,44.706179402218
15.98,7.2033333333339e-05,43.239512735371,6.6628394241395e-05,6.6628394241395e-05,7.2033333333339e-05,43.239512735552
15.99,7.1850000000005e-05,41.772846068705,6.6628394241395e-05,6.6628394241395e-05,7.1850000000005e-05,41.772846068885
16,7.1666666666672e-05,40.306179402038,6.6628394241395e-05,6.6628394241395e-05,7.1666666666672e-05,40.306179402218
16.01,7.1483333333339e-05,38.839512735371,6.6628394241395e-05,6.6628394241395e-05,7.1483333333339e-05,38.839512735552
16.02,7.1300000000005e-05,37.372846068705,6.6628394241395e-05,6.6628394241395e-05,7.1300000000005e-05,37.372846068885
16.03,7.1116666666672e-05,35.906179402038,6.6628394241395e-05,6.6628394241395e-05,7.1116666666672e-05,35.906179402218
16.04,7.0933333333339e-05,34.439512735371,6.6628394241395e-05,6.6628394241395e-05,7.0933333333339e-05,34.439512735551
16.05,7.0750000000005e-05,32.972846068704,6.6628394241395e-05,6.6628394241395e-05,7.0750000000005e-05,32.972846068884
16.06,7.0566666666672e-05,31.506179402037,6.6628394241395e-05,6.6628394241395e-05,7.0566666666672e-05,31.506179402217
16.07,7.0383333333339e-05,30.03951273537,6.6628394241395e-05,6.6628394241395e-05,7.0383333333339e-05,30.039512735551
16.08,7.0200000000005e-05,28.572846068703,6.6628394241395e-05,6.6628394241395e-05,7.0200000000005e-05,28.572846068884
16.09,7.0016666666672e-05,27.106179402036,6.6628394241395e-05,6.6628394241395e-05,7.0016666666672e-05,27.106179402217
16.1,6.9833333333339e-05,25.639512735369,6.6628394241395e-05,6.6628394241395e-05,6.9833333333339e-05,25.63951273555
16.11,6.9650000000005e-05,24.172846068702,6.6628394241395e-05,6.6628394241395e-05,6.9650000000005e-05,24.172846068883
16.12,6.9466666666672e-05,22.706179402035,6.6628394241395e-05,6.6628394241395e-05,6.9466666666672e-05,22.706179402216
16.13,6.9283333333338e-05,21.239512735369,6.6628394241395e-05,6.6628394241395e-05,6.9283333333338e-05,21.239512735549
16.14,6.9100000000005e-05,19.772846068702,6.6628394241395e-05,6.6628394241395e-05,6.9100000000005e-05,19.772846068882
16.15,6.8916666666672e-05,18.306179402035,6.6628394241395e-05,6.6628394241395e-05,6.8916666666672e-05,18.306179402215
16.16,6.8733333333338e-05,16.839512735368,6.6628394241395e-05,6.6628394241395e-05,6.8733333333338e-05,16.839512735548
16.17,6.8550000000005e-05,15.372846068701,6.6628394241395e-05,6.6628394241395e-05,6.8550000000005e-05,15.372846068882
16.18,6.8366666666672e-05,13.906179402034,6.6628394241395e-05,6.6628394241395e-05,6.8366666666672e-05,13.906179402215
16.19,6.8183333333338e-05,12.439512735367,6.6628394241395e-05,6.6628394241395e-05,6.8183333333338e-05,12.439512735548
16.2,6.8000000000005e-05,10.9728460687,6.6628394241395e-05,6.6628394241395e-05,6.8000000000005e-05,10.972846068881
16.21,6.7816666666672e-05,9.5061794020335,6.6628394241395e-05,6.6628394241395e-05,6.7816666666672e-05,9.506179402214
16.22,6.7633333333338e-05,8.0395127353666,6.6628394241395e-05,6.6628394241395e-05,6.7633333333338e-05,8.0395127355471
16.23,6.7450000000005e-05,6.5728460686997,6.6628394241395e-05,6.6628394241395e-05,6.7450000000005e-05,6.5728460688801
16.24,6.7266666666671e-05,5.1061794020328,6.6628394241395e-05,6.6628394241395e-05,6.7266666666671e-05,5.1061794022133
16.25,6.7083333333338e-05,3.639512735366,6.6628394241395e-05,6.6628394241395e-05,6.7083333333338e-05,3.6395127355465
16.26,6.6900000000005e-05,2.172846068699,6.6628394241395e-05,6.6628394241395e-05,6.6900000000005e-05,2.1728460688795
16.27,6.6716666666671e-05,0.70617940203224,6.6628394241395e-05,6.6628394241395e-05,6.6716666666671e-05,0.70617940221272
16.28,6.6533333333338e-05,0.76048726463482,6.6628394241395e-05,6.6628394241395e-05,6.6533333333338e-05,-0.76048726445434
16.29,6.6350000000005e-05,2.2271539313016,6.6628394241395e-05,6.6628394241395e-05,6.6350000000005e-05,-2.2271539311211
16.3,6.6166666666671e-05,3.6938205979686,6.6628394241395e-05,6.6628394241395e-05,6.6166666666671e-05,-3.6938205977881
16.31,6.5983333333338e-05,5.1604872646354,6.6628394241395e-05,6.6628394241395e-05,6.5983333333338e-05,-5.1604872644549
16.32,6.5800000000005e-05,6.6271539313024,6.6628394241395e-05,6.6628394241395e-05,6.5800000000005e-05,-6.6271539311219
16.33,6.5616666666671e-05,8.0938205979693,6.6628394241395e-05,6.6628394241395e-05,6.5616666666671e-05,-8.0938205977888
16.34,6.5433333333338e-05,9.5604872646362,6.6628394241395e-05,6.6628394241395e-05,6.5433333333338e-05,-9.5604872644557
16.35,6.5250000000004e-05,11.027153931303,6.6628394241395e-05,6.6628394241395e-05,6.5250000000004e-05,-11.027153931123
16.36,6.5066666666671e-05,12.49382059797,6.6628394241395e-05,6.6628394241395e-05,6.5066666666671e-05,-12.493820597789
16.37,6.4883333333338e-05,13.960487264637,6.6628394241395e-05,6.6628394241395e-05,6.4883333333338e-05,-13.960487264456
16.38,6.4700000000004e-05,15.427153931304,6.6628394241395e-05,6.6628394241395e-05,6.4700000000004e-05,-15.427153931123
16.39,6.4516666666671e-05,16.893820597971,6.6628394241395e-05,6.6628394241395e-05,6.4516666666671e-05,-16.89382059779
16.4,6.4333333333338e-05,18.360487264638,6.6628394241395e-05,6.6628394241395e-05,6.4333333333338e-05,-18.360487264457
16.41,6.4150000000004e-05,19.827153931304,6.6628394241395e-05,6.6628394241395e-05,6.4150000000004e-05,-19.827153931124
16.42,6.3966666666671e-05,21.293820597971,6.6628394241395e-05,6.6628394241395e-05,6.3966666666671e-05,-21.293820597791
16.43,6.3783333333338e-05,22.760487264638,6.6628394241395e-05,6.6628394241395e-05,6.3783333333338e-05,-22.760487264458
16.44,6.3600000000004e-05,24.227153931305,6.6628394241395e-05,6.6628394241395e-05,6.3600000000004e-05,-24.227153931125
16.45,6.3416666666671e-05,25.693820597972,6.6628394241395e-05,6.6628394241395e-05,6.3416666666671e-05,-25.693820597792
16.46,6.3233333333337e-05,27.160487264639,6.6628394241395e-05,6.6628394241395e-05,6.3233333333337e-05,-27.160487264458
16.47,6.3050000000004e-05,28.627153931306,6.6628394241395e-05,6.6628394241395e-05,6.3050000000004e-05,-28.627153931125
16.48,6.2866666666671e-05,30.093820597973,6.6628394241395e-05,6.6628394241395e-05,6.2866666666671e-05,-30.093820597792
16.49,6.2683333333337e-05,31.56048726464,6.6628394241395e-05,6.6628394241395e-05,6.2683333333337e-05,-31.560487264459
16.5,6.2500000000004e-05,33.027153931307,6.6628394241395e-05,6.6628394241395e-05,6.2500000000004e-05,-33.027153931126
16.51,6.2316666666671e-05,34.493820597973,6.6628394241395e-05,6.6628394241395e-05,6.2316666666671e-05,-34.493820597793
16.52,6.2133333333337e-05,35.96048726464,6.6628394241395e-05,6.6628394241395e-05,6.2133333333337e-05,-35.96048726446
16.53,6.1950000000004e-05,37.427153931307,6.6628394241395e-05,6.6628394241395e-05,6.1950000000004e-05,-37.427153931127
16.54,6.1766666666671e-05,38.893820597974,6.6628394241395e-05,6.6628394241395e-05,6.1766666666671e-05,-38.893820597794
16.55,6.1583333333337e-05,40.360487264641,6.6628394241395e-05,6.6628394241395e-05,6.1583333333337e-05,-40.360487264461
16.56,6.1400000000004e-05,41.827153931308,6.6628394241395e-05,6.6628394241395e-05,6.1400000000004e-05,-41.827153931127
16.57,6.1216666666671e-05,43.293820597975,6.6628394241395e-05,6.6628394241395e-05,6.1216666666671e-05,-43.293820597794
16.58,6.1033333333337e-05,44.760487264642,6.6628394241395e-05,6.6628394241395e-05,6.1033333333337e-05,-44.760487264461
16.59,6.0850000000004e-05,46.227153931309,6.6628394241395e-05,6.6628394241395e-05,6.0850000000004e-05,-46.227153931128
16.6,6.066666666667e-05,47.693820597975,6.6628394241395e-05,6.6628394241395e-05,6.066666666667e-05,-47.693820597795
16.61,6.0483333333337e-05,49.160487264642,6.6628394241395e-05,6.6628394241395e-05,6.0483333333337e-05,-49.160487264462
16.62,6.0300000000004e-05,50.627153931309,6.6628394241395e-05,6.6628394241395e-05,6.0300000000004e-05,-50.627153931129
16.63,6.011666666667e-05,52.093820597976,6.6628394241395e-05,6.6628394241395e-05,6.011666666667e-05,-52.093820597796
16.64,5.9933333333337e-05,53.560487264643,6.6628394241395e-05,6.6628394241395e-05,5.9933333333337e-05,-53.560487264463
16.65,5.9750000000004e-05,55.02715393131,6.6628394241395e-05,6.6628394241395e-05,5.9750000000004e-05,-55.027153931129
16.66,5.956666666667e-05,56.493820597977,6.6628394241395e-05,6.6628394241395e-05,5.956666666667e-05,-56.493820597796
16.67,5.9383333333337e-05,57.960487264644,6.6628394241395e-05,6.6628394241395e-05,5.9383333333337e-05,-57.960487264463
16.68,5.9200000000004e-05,59.427153931311,6.6628394241395e-05,6.6628394241395e-05,5.9200000000004e-05,-59.42715393113
16.69,5.901666666667e-05,60.893820597977,6.6628394241395e-05,6.6628394241395e-05,5.901666666667e-05,-60.893820597797
16.7,5.8833333333337e-05,62.360487264644,6.6628394241395e-05,6.6628394241395e-05,5.8833333333337e-05,-62.360487264464
16.71,5.8650000000003e-05,63.827153931311,6.6628394241395e-05,6.6628394241395e-05,5.8650000000003e-05,-63.827153931131
16.72,5.846666666667e-05,65.293820597978,6.6628394241395e-05,6.6628394241395e-05,5.846666666667e-05,-65.293820597798
16.73,5.8283333333337e-05,66.760487264645,6.6628394241395e-05,6.6628394241395e-05,5.8283333333337e-05,-66.760487264465
16.74,5.8100000000003e-05,68.227153931312,6.6628394241395e-05,6.6628394241395e-05,5.8100000000003e-05,-68.227153931132
16.75,5.791666666667e-05,69.693820597979,6.6628394241395e-05,6.6628394241395e-05,5.791666666667e-05,-69.693820597798
16.76,5.7733333333337e-05,71.160487264646,6.6628394241395e-05,6.6628394241395e-05,5.7733333333337e-05,-71.160487264465
16.77,5.7550000000003e-05,72.627153931313,6.6628394241395e-05,6.6628394241395e-05,5.7550000000003e-05,-72.627153931132
16.78,5.736666666667e-05,74.09382059798,6.6628394241395e-05,6.6628394241395e-05,5.736666666667e-05,-74.093820597799
16.79,5.7183333333337e-05,75.560487264647,6.6628394241395e-05,6.6628394241395e-05,5.7183333333337e-05,-75.560487264466
16.8,5.7000000000003e-05,77.027153931313,6.6628394241395e-05,6.6628394241395e-05,5.7000000000003e-05,-77.027153931133
16.81,5.681666666667e-05,78.49382059798,6.6628394241395e-05,6.6628394241395e-05,5.681666666667e-05,-78.4938205978
16.82,5.6633333333336e-05,79.960487264647,6.6628394241395e-05,6.6628394241395e-05,5.6633333333336e-05,-79.960487264467
16.83,5.6450000000003e-05,81.427153931314,6.6628394241395e-05,6.6628394241395e-05,5.6450000000003e-05,-81.427153931134
16.84,5.626666666667e-05,82.893820597981,6.6628394241395e-05,6.6628394241395e-05,5.626666666667e-05,-82.893820597801
16.85,5.6083333333336e-05,84.360487264648,6.6628394241395e-05,6.6628394241395e-05,5.6083333333336e-05,-84.360487264467
16.86,5.5900000000003e-05,85.827153931315,6.6628394241395e-05,6.6628394241395e-05,5.5900000000003e-05,-85.827153931134
16.87,5.571666666667e-05,87.293820597982,6.6628394241395e-05,6.6628394241395e-05,5.571666666667e-05,-87.293820597801
16.88,5.5533333333336e-05,88.760487264649,6.6628394241395e-05,6.6628394241395e-05,5.5533333333336e-05,-88.760487264468
16.89,5.5350000000003e-05,90.227153931315,6.6628394241395e-05,6.6628394241395e-05,5.5350000000003e-05,-90.227153931135
16.9,5.516666666667e-05,91.693820597982,6.6628394241395e-05,6.6628394241395e-05,5.516666666667e-05,-91.693820597802
16.91,5.4983333333336e-05,93.160487264649,6.6628394241395e-05,6.6628394241395e-05,5.4983333333336e-05,-93.160487264469
16.92,5.4800000000003e-05,94.627153931316,6.6628394241395e-05,6.6628394241395e-05,5.4800000000003e-05,-94.627153931136
16.93,5.4616666666669e-05,96.093820597983,6.6628394241395e-05,6.6628394241395e-05,5.4616666666669e-05,-96.093820597803
16.94,5.4433333333336e-05,97.56048726465,6.6628394241395e-05,6.6628394241395e-05,5.4433333333336e-05,-97.560487264469
16.95,5.4250000000003e-05,99.027153931317,6.6628394241395e-05,6.6628394241395e-05,5.4250000000003e-05,-99.027153931136
16.96,5.4066666666669e-05,100.49382059798,6.6628394241395e-05,6.6628394241395e-05,5.4066666666669e-05,-100.4938205978
16.97,5.3883333333336e-05,101.96048726465,6.6628394241395e-05,6.6628394241395e-05,5.3883333333336e-05,-101.96048726447
16.98,5.3700000000003e-05,103.42715393132,6.6628394241395e-05,6.6628394241395e-05,5.3700000000003e-05,-103.42715393114
16.99,5.3516666666669e-05,104.89382059798,6.6628394241395e-05,6.6628394241395e-05,5.3516666666669e-05,-104.8938205978
17,5.3333333333336e-05,106.36048726465,6.6628394241395e-05,6.6628394241395e-05,5.3333333333336e-05,-106.36048726447
17.01,5.3150000000003e-05,107.82715393132,6.6628394241395e-05,6.6628394241395e-05,5.3150000000003e-05,-107.82715393114
17.02,5.2966666666669e-05,109.29382059799,6.6628394241395e-05,6.6628394241395e-05,5.2966666666669e-05,-109.2938205978
17.03,5.2783333333336e-05,110.76048726465,6.6628394241395e-05,6.6628394241395e-05,5.2783333333336e-05,-110.76048726447
17.04,5.2600000000002e-05,112.22715393132,6.6628394241395e-05,6.6628394241395e-05,5.2600000000002e-05,-112.22715393114
17.05,5.2416666666669e-05,113.69382059799,6.6628394241395e-05,6.6628394241395e-05,5.2416666666669e-05,-113.69382059781
17.06,5.2233333333336e-05,115.16048726465,6.6628394241395e-05,6.6628394241395e-05,5.2233333333336e-05,-115.16048726447
17.07,5.2050000000002e-05,116.62715393132,6.6628394241395e-05,6.6628394241395e-05,5.2050000000002e-05,-116.62715393114
17.08,5.1866666666669e-05,118.09382059799,6.6628394241395e-05,6.6628394241395e-05,5.1866666666669e-05,-118.09382059781
17.09,5.1683333333336e-05,119.56048726465,6.6628394241395e-05,6.6628394241395e-05,5.1683333333336e-05,-119.56048726447
17.1,5.1500000000002e-05,121.02715393132,6.6628394241395e-05,6.6628394241395e-05,5.1500000000002e-05,-121.02715393114
17.11,5.1316666666669e-05,122.49382059799,6.6628394241395e-05,6.6628394241395e-05,5.1316666666669e-05,-122.49382059781
17.12,5.1133333333336e-05,123.96048726465,6.6628394241395e-05,6.6628394241395e-05,5.1133333333336e-05,-123.96048726447
17.13,5.0950000000002e-05,125.42715393132,6.6628394241395e-05,6.6628394241395e-05,5.0950000000002e-05,-125.42715393114
17.14,5.0766666666669e-05,126.89382059799,6.6628394241395e-05,6.6628394241395e-05,5.0766666666669e-05,-126.89382059781
17.15,5.0583333333336e-05,128.36048726465,6.6628394241395e-05,6.6628394241395e-05,5.0583333333336e-05,-128.36048726447
17.16,5.0400000000002e-05,129.82715393132,6.6628394241395e-05,6.6628394241395e-05,5.0400000000002e-05,-129.82715393114
17.17,5.0216666666669e-05,131.29382059799,6.6628394241395e-05,6.6628394241395e-05,5.0216666666669e-05,-131.29382059781
17.18,5.0033333333335e-05,132.76048726466,6.6628394241395e-05,6.6628394241395e-05,5.0033333333335e-05,-132.76048726447
17.19,4.9850000000002e-05,134.22715393132,6.6628394241395e-05,6.6628394241395e-05,4.9850000000002e-05,-134.22715393114
17.2,4.9666666666669e-05,135.69382059799,6.6628394241395e-05,6.6628394241395e-05,4.9666666666669e-05,-135.69382059781
17.21,4.9483333333335e-05,137.16048726466,6.6628394241395e-05,6.6628394241395e-05,4.9483333333335e-05,-137.16048726448
17.22,4.9300000000002e-05,138.62715393132,6.6628394241395e-05,6.6628394241395e-05,4.9300000000002e-05,-138.62715393114
17.23,4.9116666666669e-05,140.09382059799,6.6628394241395e-05,6.6628394241395e-05,4.9116666666669e-05,-140.09382059781
17.24,4.8933333333335e-05,141.56048726466,6.6628394241395e-05,6.6628394241395e-05,4.8933333333335e-05,-141.56048726448
17.25,4.8750000000002e-05,143.02715393132,6.6628394241395e-05,6.6628394241395e-05,4.8750000000002e-05,-143.02715393114
17.26,4.8566666666669e-05,144.49382059799,6.6628394241395e-05,6.6628394241395e-05,4.8566666666669e-05,-144.49382059781
17.27,4.8383333333335e-05,145.96048726466,6.6628394241395e-05,6.6628394241395e-05,4.8383333333335e-05,-145.96048726448
17.28,4.8200000000002e-05,146.81763012181,6.670458471755e-05,6.655220376524e-05,4.8200000000002e-05,-146.8176301219
17.29,4.8016666666668e-05,146.9199557032,6.6875127353196e-05,6.6381661129593e-05,4.8016666666668e-05,-146.9199557034
17.3,4.7833333333335e-05,147.02228128459,6.7045669988855e-05,6.6211118493934e-05,4.7833333333335e-05,-147.02228128479
17.31,4.7650000000002e-05,147.12460686599,6.7216212624514e-05,6.6040575858275e-05,4.7650000000002e-05,-147.12460686619
17.32,4.7466666666668e-05,147.22693244738,6.7386755260173e-05,6.5870033222616e-05,4.7466666666668e-05,-147.22693244758
17.33,4.7283333333335e-05,147.32925802878,6.7557297895832e-05,6.5699490586958e-05,4.7283333333335e-05,-147.32925802898
17.34,4.7100000000002e-05,147.43158361017,6.7727840531491e-05,6.5528947951299e-05,4.7100000000002e-05,-147.43158361037
17.35,4.6916666666668e-05,147.53390919157,6.789838316715e-05,6.535840531564e-05,4.6916666666668e-05,-147.53390919177
17.36,4.6733333333335e-05,147.63623477296,6.8068925802809e-05,6.5187862679981e-05,4.6733333333335e-05,-147.63623477317
17.37,4.6550000000002e-05,147.73856035436,6.8239468438468e-05,6.5017320044322e-05,4.6550000000002e-05,-147.73856035456
17.38,4.6366666666668e-05,147.84088593575,6.8410011074127e-05,6.4846777408663e-05,4.6366666666668e-05,-147.84088593596
17.39,4.6183333333335e-05,147.94321151715,6.8580553709786e-05,6.4676234773004e-05,4.6183333333335e-05,-147.94321151735
17.4,4.6000000000001e-05,148.04553709854,6.8751096345445e-05,6.4505692137345e-05,4.6000000000001e-05,-148.04553709875
17.41,4.5816666666668e-05,148.14786267994,6.8921638981104e-05,6.4335149501686e-05,4.5816666666668e-05,-148.14786268014
17.42,4.5633333333335e-05,148.25018826134,6.9092181616763e-05,6.4164606866027e-05,4.5633333333335e-05,-148.25018826154
17.43,4.5450000000001e-05,148.35251384273,6.9262724252422e-05,6.3994064230368e-05,4.5450000000001e-05,-148.35251384293
17.44,4.5266666666668e-05,148.45483942413,6.9433266888081e-05,6.3823521594709e-05,4.5266666666668e-05,-148.45483942433
17.45,4.5083333333335e-05,148.55716500552,6.960380952374e-05,6.365297895905e-05,4.5083333333335e-05,-148.55716500572
17.46,4.4900000000001e-05,148.65949058692,6.9774352159398e-05,6.3482436323391e-05,4.4900000000001e-05,-148.65949058712
17.47,4.4716666666668e-05,148.76181616831,6.9944894795057e-05,6.3311893687732e-05,4.4716666666668e-05,-148.76181616851
17.48,4.4533333333335e-05,148.86414174971,7.0115437430716e-05,6.3141351052073e-05,4.4533333333335e-05,-148.86414174991
17.49,4.4350000000001e-05,148.9664673311,7.0285980066375e-05,6.2970808416414e-05,4.4350000000001e-05,-148.96646733131
17.5,4.4166666666668e-05,149.0687929125,7.0456522702034e-05,6.2800265780755e-05,4.4166666666668e-05,-149.0687929127
17.51,4.3983333333334e-05,149.17111849389,7.0627065337693e-05,6.2629723145097e-05,4.3983333333334e-05,-149.1711184941
17.52,4.3800000000001e-05,149.27344407529,7.0797607973352e-05,6.2459180509438e-05,4.3800000000001e-05,-149.27344407549
17.53,4.3616666666668e-05,149.37576965668,7.0968150609011e-05,6.2288637873779e-05,4.3616666666668e-05,-149.37576965689
17.54,4.3433333333334e-05,149.47809523808,7.113869324467e-05,6.211809523812e-05,4.3433333333334e-05,-149.47809523828
17.55,4.3250000000001e-05,149.58042081948,7.1309235880329e-05,6.1947552602461e-05,4.3250000000001e-05,-149.58042081968
17.56,4.3066666666668e-05,149.68274640087,7.1479778515988e-05,6.1777009966802e-05,4.3066666666668e-05,-149.68274640107
17.57,4.2883333333334e-05,149.78507198227,7.1650321151647e-05,6.1606467331143e-05,4.2883333333334e-05,-149.78507198247
17.58,4.2700000000001e-05,149.88739756366,7.1820863787306e-05,6.1435924695484e-05,4.2700000000001e-05,-149.88739756386
17.59,4.2516666666668e-05,149.98972314506,7.1991406422965e-05,6.1265382059825e-05,4.2516666666668e-05,-149.98972314526
17.6,4.2333333333334e-05,150.09204872645,7.2161949058624e-05,6.1094839424166e-05,4.2333333333334e-05,-150.09204872665
17.61,4.2150000000001e-05,150.19437430785,7.2332491694283e-05,6.0924296788507e-05,4.2150000000001e-05,-150.19437430805
17.62,4.1966666666667e-05,150.29669988924,7.2503034329942e-05,6.0753754152848e-05,4.1966666666668e-05,-150.29669988945
17.63,4.1783333333334e-05,150.39902547064,7.26735769656e-05,6.0583211517189e-05,4.1783333333334e-05,-150.39902547084
17.64,4.1600000000001e-05,150.50135105203,7.2844119601259e-05,6.041266888153e-05,4.1600000000001e-05,-150.50135105224
17.65,4.1416666666667e-05,150.60367663343,7.3014662236918e-05,6.0242126245871e-05,4.1416666666667e-05,-150.60367663363
17.66,4.1233333333334e-05,150.70600221482,7.3185204872577e-05,6.0071583610212e-05,4.1233333333334e-05,-150.70600221503
17.67,4.1050000000001e-05,150.80832779622,7.3355747508236e-05,5.9901040974553e-05,4.1050000000001e-05,-150.80832779642
17.68,4.0866666666667e-05,150.91065337761,7.3526290143895e-05,5.9730498338895e-05,4.0866666666667e-05,-150.91065337782
17.69,4.0683333333334e-05,151.01297895901,7.3696832779554e-05,5.9559955703236e-05,4.0683333333334e-05,-151.01297895921
17.7,4.0500000000001e-05,151.11530454041,7.3867375415213e-05,5.9389413067577e-05,4.0500000000001e-05,-151.11530454061
17.71,4.0316666666667e-05,151.2176301218,7.4037918050872e-05,5.9218870431918e-05,4.0316666666667e-05,-151.217630122
17.72,4.0133333333334e-05,151.3199557032,7.4208460686531e-05,5.9048327796259e-05,4.0133333333334e-05,-151.3199557034
17.73,3.9950000000001e-05,151.42228128459,7.437900332219e-05,5.88777851606e-05,3.9950000000001e-05,-151.42228128479
17.74,3.9766666666667e-05,151.52460686599,7.4549545957849e-05,5.8707242524941e-05,3.9766666666667e-05,-151.52460686619
17.75,3.9583333333334e-05,151.62693244738,7.4720088593508e-05,5.8536699889282e-05,3.9583333333334e-05,-151.62693244758
17.76,3.94e-05,151.72925802878,7.4890631229167e-05,5.8366157253623e-05,3.94e-05,-151.72925802898
17.77,3.9216666666667e-05,151.83158361017,7.5061173864826e-05,5.8195614617964e-05,3.9216666666667e-05,-151.83158361038
17.78,3.9033333333334e-05,151.93390919157,7.5231716500485e-05,5.8025071982305e-05,3.9033333333334e-05,-151.93390919177
17.79,3.885e-05,152.03623477296,7.5402259136144e-05,5.7854529346646e-05,3.885e-05,-152.03623477317
17.8,3.8666666666667e-05,152.13856035436,7.5572801771803e-05,5.7683986710987e-05,3.8666666666667e-05,-152.13856035456
17.81,3.8483333333334e-05,152.24088593575,7.5743344407461e-05,5.7513444075328e-05,3.8483333333334e-05,-152.24088593596
17.82,3.83e-05,152.34321151715,7.591388704312e-05,5.7342901439669e-05,3.83e-05,-152.34321151735
17.83,3.8116666666667e-05,152.44553709855,7.6084429678779e-05,5.717235880401e-05,3.8116666666667e-05,-152.44553709875
17.84,3.7933333333334e-05,152.54786267994,7.6254972314438e-05,5.7001816168351e-05,3.7933333333334e-05,-152.54786268014
17.85,3.775e-05,152.65018826134,7.6425514950097e-05,5.6831273532693e-05,3.775e-05,-152.65018826154
17.86,3.7566666666667e-05,152.75251384273,7.6596057585756e-05,5.6660730897034e-05,3.7566666666667e-05,-152.75251384293
17.87,3.7383333333333e-05,152.85483942413,7.6766600221415e-05,5.6490188261375e-05,3.7383333333333e-05,-152.85483942433
17.88,3.72e-05,152.95716500552,7.6937142857074e-05,5.6319645625716e-05,3.72e-05,-152.95716500572
17.89,3.7016666666667e-05,153.05949058692,7.7107685492733e-05,5.6149102990057e-05,3.7016666666667e-05,-153.05949058712
17.9,3.6833333333333e-05,153.16181616831,7.7278228128392e-05,5.5978560354398e-05,3.6833333333333e-05,-153.16181616852
17.91,3.665e-05,153.26414174971,7.7448770764051e-05,5.5808017718739e-05,3.665e-05,-153.26414174991
17.92,3.6466666666667e-05,153.3664673311,7.761931339971e-05,5.563747508308e-05,3.6466666666667e-05,-153.36646733131
17.93,3.6283333333333e-05,153.4687929125,7.7789856035369e-05,5.5466932447421e-05,3.6283333333333e-05,-153.4687929127
17.94,3.61e-05,153.57111849389,7.7960398671028e-05,5.5296389811762e-05,3.61e-05,-153.5711184941
17.95,3.5916666666667e-05,153.67344407529,7.8130941306687e-05,5.5125847176103e-05,3.5916666666667e-05,-153.67344407549
17.96,3.5733333333333e-05,153.77576965668,7.8301483942346e-05,5.4955304540444e-05,3.5733333333333e-05,-153.77576965689
17.97,3.555e-05,153.87809523808,7.8472026578005e-05,5.4784761904785e-05,3.555e-05,-153.87809523828
17.98,3.5366666666666e-05,153.98042081948,7.8642569213663e-05,5.4614219269126e-05,3.5366666666666e-05,-153.98042081968
17.99,3.5183333333333e-05,154.08274640087,7.8813111849322e-05,5.4443676633467e-05,3.5183333333333e-05,-154.08274640107
18,3.5e-05,154.18507198227,7.8983654484981e-05,5.4273133997808e-05,3.5e-05,-154.18507198247
18.01,3.4816666666666e-05,154.28739756366,7.915419712064e-05,5.4102591362149e-05,3.4816666666666e-05,-154.28739756386
18.02,3.4633333333333e-05,154.38972314506,7.9324739756299e-05,5.3932048726491e-05,3.4633333333333e-05,-154.38972314526
18.03,3.445e-05,154.49204872645,7.9495282391958e-05,5.3761506090832e-05,3.445e-05,-154.49204872666
18.04,3.4266666666666e-05,154.59437430785,7.9665825027617e-05,5.3590963455173e-05,3.4266666666666e-05,-154.59437430805
18.05,3.4083333333333e-05,154.69669988924,7.9836367663276e-05,5.3420420819514e-05,3.4083333333333e-05,-154.69669988945
18.06,3.39e-05,154.79902547064,8.0006910298935e-05,5.3249878183855e-05,3.39e-05,-154.79902547084
18.07,3.3716666666666e-05,154.90135105203,8.0177452934594e-05,5.3079335548196e-05,3.3716666666666e-05,-154.90135105224
18.08,3.3533333333333e-05,155.00367663343,8.0347995570253e-05,5.2908792912537e-05,3.3533333333333e-05,-155.00367663363
18.09,3.3349999999999e-05,155.10600221482,8.0518538205912e-05,5.2738250276878e-05,3.3349999999999e-05,-155.10600221503
18.1,3.3166666666666e-05,155.20832779622,8.0689080841571e-05,5.2567707641219e-05,3.3166666666666e-05,-155.20832779642
18.11,3.2983333333333e-05,155.31065337762,8.085962347723e-05,5.239716500556e-05,3.2983333333333e-05,-155.31065337782
18.12,3.2799999999999e-05,155.41297895901,8.1030166112889e-05,5.2226622369901e-05,3.2799999999999e-05,-155.41297895921
18.13,3.2616666666666e-05,155.51530454041,8.1200708748548e-05,5.2056079734242e-05,3.2616666666666e-05,-155.51530454061
18.14,3.2433333333333e-05,155.6176301218,8.1371251384207e-05,5.1885537098583e-05,3.2433333333333e-05,-155.617630122
18.15,3.2249999999999e-05,155.7199557032,8.1541794019866e-05,5.1714994462924e-05,3.2249999999999e-05,-155.7199557034
18.16,3.2066666666666e-05,155.82228128459,8.1712336655524e-05,5.1544451827265e-05,3.2066666666666e-05,-155.82228128479
18.17,3.1883333333333e-05,155.92460686599,8.1882879291183e-05,5.1373909191606e-05,3.1883333333333e-05,-155.92460686619
18.18,3.1699999999999e-05,156.02693244738,8.2053421926842e-05,5.1203366555947e-05,3.1699999999999e-05,-156.02693244759
18.19,3.1516666666666e-05,156.12925802878,8.2223964562501e-05,5.1032823920289e-05,3.1516666666666e-05,-156.12925802898
18.2,3.1333333333333e-05,156.23158361017,8.239450719816e-05,5.086228128463e-05,3.1333333333332e-05,-156.23158361038
18.21,3.1149999999999e-05,156.33390919157,8.2565049833819e-05,5.0691738648971e-05,3.1149999999999e-05,-156.33390919177
18.22,3.0966666666666e-05,156.43623477296,8.2735592469478e-05,5.0521196013312e-05,3.0966666666666e-05,-156.43623477317
18.23,3.0783333333332e-05,156.53856035436,8.2906135105137e-05,5.0350653377653e-05,3.0783333333332e-05,-156.53856035456
18.24,3.0599999999999e-05,156.64088593576,8.3076677740796e-05,5.0180110741994e-05,3.0599999999999e-05,-156.64088593596
18.25,3.0416666666666e-05,156.74321151715,8.3247220376455e-05,5.0009568106335e-05,3.0416666666666e-05,-156.74321151735
18.26,3.0233333333332e-05,156.84553709855,8.3417763012114e-05,4.9839025470676e-05,3.0233333333332e-05,-156.84553709875
18.27,3.0049999999999e-05,156.94786267994,8.3588305647773e-05,4.9668482835017e-05,3.0049999999999e-05,-156.94786268014
18.28,2.9866666666666e-05,157.05018826134,8.3758848283432e-05,4.9497940199358e-05,2.9866666666666e-05,-157.05018826154
18.29,2.9683333333332e-05,157.15251384273,8.3929390919091e-05,4.9327397563699e-05,2.9683333333332e-05,-157.15251384293
18.3,2.9499999999999e-05,157.25483942413,8.409993355475e-05,4.915685492804e-05,2.9499999999999e-05,-157.25483942433
18.31,2.9316666666666e-05,157.35716500552,8.4270476190409e-05,4.8986312292381e-05,2.9316666666666e-05,-157.35716500573
18.32,2.9133333333332e-05,157.45949058692,8.4441018826068e-05,4.8815769656722e-05,2.9133333333332e-05,-157.45949058712
18.33,2.8949999999999e-05,157.56181616831,8.4611561461726e-05,4.8645227021063e-05,2.8949999999999e-05,-157.56181616852
18.34,2.8766666666665e-05,157.66414174971,8.4782104097385e-05,4.8474684385404e-05,2.8766666666665e-05,-157.66414174991
18.35,2.8583333333332e-05,157.7664673311,8.4952646733044e-05,4.8304141749745e-05,2.8583333333332e-05,-157.76646733131
18.36,2.8399999999999e-05,157.8687929125,8.5123189368703e-05,4.8133599114087e-05,2.8399999999999e-05,-157.8687929127
18.37,2.8216666666665e-05,157.97111849389,8.5293732004362e-05,4.7963056478428e-05,2.8216666666665e-05,-157.9711184941
18.38,2.8033333333332e-05,158.07344407529,8.5464274640021e-05,4.7792513842769e-05,2.8033333333332e-05,-158.07344407549
18.39,2.7849999999999e-05,158.17576965669,8.563481727568e-05,4.762197120711e-05,2.7849999999999e-05,-158.17576965689
18.4,2.7666666666665e-05,158.27809523808,8.5805359911339e-05,4.7451428571451e-05,2.7666666666665e-05,-158.27809523828
18.41,2.7483333333332e-05,158.38042081948,8.5975902546998e-05,4.7280885935792e-05,2.7483333333332e-05,-158.38042081968
18.42,2.7299999999999e-05,158.48274640087,8.6146445182657e-05,4.7110343300133e-05,2.7299999999999e-05,-158.48274640107
18.43,2.7116666666665e-05,158.58507198227,8.6316987818316e-05,4.6939800664474e-05,2.7116666666665e-05,-158.58507198247
18.44,2.6933333333332e-05,158.68739756366,8.6487530453975e-05,4.6769258028815e-05,2.6933333333332e-05,-158.68739756387
18.45,2.6749999999998e-05,158.78972314506,8.6658073089634e-05,4.6598715393156e-05,2.6749999999998e-05,-158.78972314526
18.46,2.6566666666665e-05,158.89204872645,8.6828615725293e-05,4.6428172757497e-05,2.6566666666665e-05,-158.89204872666
18.47,2.6383333333332e-05,158.99437430785,8.6999158360952e-05,4.6257630121838e-05,2.6383333333332e-05,-158.99437430805
18.48,2.6199999999998e-05,159.09669988924,8.7169700996611e-05,4.6087087486179e-05,2.6199999999998e-05,-159.09669988945
18.49,2.6016666666665e-05,159.19902547064,8.734024363227e-05,4.591654485052e-05,2.6016666666665e-05,-159.19902547084
18.5,2.5833333333332e-05,159.30135105203,8.7510786267928e-05,4.5746002214861e-05,2.5833333333332e-05,-159.30135105224
18.51,2.5649999999998e-05,159.40367663343,8.7681328903587e-05,4.5575459579202e-05,2.5649999999998e-05,-159.40367663363
18.52,2.5466666666665e-05,159.50600221483,8.7851871539246e-05,4.5404916943543e-05,2.5466666666665e-05,-159.50600221503
18.53,2.5283333333332e-05,159.60832779622,8.8022414174905e-05,4.5234374307884e-05,2.5283333333332e-05,-159.60832779642
18.54,2.5099999999998e-05,159.71065337762,8.8192956810564e-05,4.5063831672226e-05,2.5099999999998e-05,-159.71065337782
18.55,2.4916666666665e-05,159.81297895901,8.8363499446223e-05,4.4893289036567e-05,2.4916666666665e-05,-159.81297895921
18.56,2.4733333333331e-05,159.91530454041,8.8534042081882e-05,4.4722746400908e-05,2.4733333333331e-05,-159.91530454061
18.57,2.4549999999998e-05,160.0176301218,8.8704584717541e-05,4.4552203765249e-05,2.4549999999998e-05,-160.017630122
18.58,2.4366666666665e-05,160.1199557032,8.88751273532e-05,4.438166112959e-05,2.4366666666665e-05,-160.1199557034
18.59,2.4183333333331e-05,160.22228128459,8.9045669988859e-05,4.4211118493931e-05,2.4183333333331e-05,-160.2222812848
18.6,2.3999999999998e-05,160.32460686599,8.9216212624518e-05,4.4040575858272e-05,2.3999999999998e-05,-160.32460686619
18.61,2.3816666666665e-05,160.42693244738,8.9386755260177e-05,4.3870033222613e-05,2.3816666666665e-05,-160.42693244759
18.62,2.3633333333331e-05,160.52925802878,8.9557297895836e-05,4.3699490586954e-05,2.3633333333331e-05,-160.52925802898
18.63,2.3449999999998e-05,160.63158361017,8.9727840531495e-05,4.3528947951295e-05,2.3449999999998e-05,-160.63158361038
18.64,2.3266666666665e-05,160.73390919157,8.9898383167154e-05,4.3358405315636e-05,2.3266666666665e-05,-160.73390919177
18.65,2.3083333333331e-05,160.83623477297,9.0068925802813e-05,4.3187862679977e-05,2.3083333333331e-05,-160.83623477317
18.66,2.2899999999998e-05,160.93856035436,9.0239468438472e-05,4.3017320044318e-05,2.2899999999998e-05,-160.93856035456
18.67,2.2716666666664e-05,161.04088593576,9.041001107413e-05,4.2846777408659e-05,2.2716666666664e-05,-161.04088593596
18.68,2.2533333333331e-05,161.14321151715,9.0580553709789e-05,4.2676234773e-05,2.2533333333331e-05,-161.14321151735
18.69,2.2349999999998e-05,161.24553709855,9.0751096345448e-05,4.2505692137341e-05,2.2349999999998e-05,-161.24553709875
18.7,2.2166666666664e-05,161.34786267994,9.0921638981107e-05,4.2335149501682e-05,2.2166666666664e-05,-161.34786268014
18.71,2.1983333333331e-05,161.45018826134,9.1092181616766e-05,4.2164606866024e-05,2.1983333333331e-05,-161.45018826154
18.72,2.1799999999998e-05,161.55251384273,9.1262724252425e-05,4.1994064230365e-05,2.1799999999998e-05,-161.55251384294
18.73,2.1616666666664e-05,161.65483942413,9.1433266888084e-05,4.1823521594706e-05,2.1616666666664e-05,-161.65483942433
18.74,2.1433333333331e-05,161.75716500552,9.1603809523743e-05,4.1652978959047e-05,2.1433333333331e-05,-161.75716500573
18.75,2.1249999999998e-05,161.85949058692,9.1774352159402e-05,4.1482436323388e-05,2.1249999999998e-05,-161.85949058712
18.76,2.1066666666664e-05,161.96181616831,9.1944894795061e-05,4.1311893687729e-05,2.1066666666664e-05,-161.96181616852
18.77,2.0883333333331e-05,162.06414174971,9.211543743072e-05,4.114135105207e-05,2.0883333333331e-05,-162.06414174991
18.78,2.0699999999998e-05,162.1664673311,9.2285980066379e-05,4.0970808416411e-05,2.0699999999998e-05,-162.16646733131
18.79,2.0516666666664e-05,162.2687929125,9.2456522702038e-05,4.0800265780752e-05,2.0516666666664e-05,-162.2687929127
18.8,2.0333333333331e-05,162.3711184939,9.2627065337697e-05,4.0629723145093e-05,2.0333333333331e-05,-162.3711184941
18.81,2.0149999999997e-05,162.47344407529,9.2797607973356e-05,4.0459180509434e-05,2.0149999999997e-05,-162.47344407549
18.82,1.9966666666664e-05,162.57576965669,9.2968150609015e-05,4.0288637873775e-05,1.9966666666664e-05,-162.57576965689
18.83,1.9783333333331e-05,162.67809523808,9.3138693244674e-05,4.0118095238116e-05,1.9783333333331e-05,-162.67809523828
18.84,1.9599999999997e-05,162.78042081948,9.3309235880333e-05,3.9947552602457e-05,1.9599999999997e-05,-162.78042081968
18.85,1.9416666666664e-05,162.88274640087,9.3479778515991e-05,3.9777009966798e-05,1.9416666666664e-05,-162.88274640107
18.86,1.9233333333331e-05,162.98507198227,9.365032115165e-05,3.9606467331139e-05,1.9233333333331e-05,-162.98507198247
18.87,1.9049999999997e-05,163.08739756366,9.3820863787309e-05,3.943592469548e-05,1.9049999999997e-05,-163.08739756387
18.88,1.8866666666664e-05,163.18972314506,9.3991406422968e-05,3.9265382059822e-05,1.8866666666664e-05,-163.18972314526
18.89,1.8683333333331e-05,163.29204872645,9.4161949058627e-05,3.9094839424163e-05,1.8683333333331e-05,-163.29204872666
18.9,1.8499999999997e-05,163.39437430785,9.4332491694286e-05,3.8924296788504e-05,1.8499999999997e-05,-163.39437430805
18.91,1.8316666666664e-05,163.49669988924,9.4503034329945e-05,3.8753754152845e-05,1.8316666666664e-05,-163.49669988945
18.92,1.813333333333e-05,163.59902547064,9.4673576965604e-05,3.8583211517186e-05,1.813333333333e-05,-163.59902547084
18.93,1.7949999999997e-05,163.70135105204,9.4844119601263e-05,3.8412668881527e-05,1.7949999999997e-05,-163.70135105224
18.94,1.7766666666664e-05,163.80367663343,9.5014662236922e-05,3.8242126245868e-05,1.7766666666664e-05,-163.80367663363
18.95,1.758333333333e-05,163.90600221483,9.5185204872581e-05,3.8071583610209e-05,1.758333333333e-05,-163.90600221503
18.96,1.7399999999997e-05,164.00832779622,9.535574750824e-05,3.790104097455e-05,1.7399999999997e-05,-164.00832779642
18.97,1.7216666666664e-05,164.11065337762,9.5526290143899e-05,3.7730498338891e-05,1.7216666666664e-05,-164.11065337782
18.98,1.703333333333e-05,164.21297895901,9.5696832779558e-05,3.7559955703232e-05,1.703333333333e-05,-164.21297895921
18.99,1.6849999999997e-05,164.31530454041,9.5867375415217e-05,3.7389413067573e-05,1.6849999999997e-05,-164.31530454061
19,1.6666666666664e-05,164.4176301218,9.6037918050876e-05,3.7218870431914e-05,1.6666666666664e-05,-164.41763012201
19.01,1.648333333333e-05,164.5199557032,9.6208460686535e-05,3.7048327796255e-05,1.648333333333e-05,-164.5199557034
19.02,1.6299999999997e-05,164.62228128459,9.6379003322193e-05,3.6877785160596e-05,1.6299999999997e-05,-164.6222812848
19.03,1.6116666666663e-05,164.72460686599,9.6549545957852e-05,3.6707242524937e-05,1.6116666666663e-05,-164.72460686619
19.04,1.593333333333e-05,164.82693244738,9.6720088593511e-05,3.6536699889278e-05,1.593333333333e-05,-164.82693244759
19.05,1.5749999999997e-05,164.92925802878,9.689063122917e-05,3.636615725362e-05,1.5749999999997e-05,-164.92925802898
19.06,1.5566666666663e-05,165.03158361018,9.7061173864829e-05,3.6195614617961e-05,1.5566666666663e-05,-165.03158361038
19.07,1.538333333333e-05,165.13390919157,9.7231716500488e-05,3.6025071982302e-05,1.538333333333e-05,-165.13390919177
19.08,1.5199999999997e-05,165.23623477297,9.7402259136147e-05,3.5854529346643e-05,1.5199999999997e-05,-165.23623477317
19.09,1.5016666666663e-05,165.33856035436,9.7572801771806e-05,3.5683986710984e-05,1.5016666666663e-05,-165.33856035456
19.1,1.483333333333e-05,165.44088593576,9.7743344407465e-05,3.5513444075325e-05,1.483333333333e-05,-165.44088593596
19.11,1.4649999999997e-05,165.54321151715,9.7913887043124e-05,3.5342901439666e-05,1.4649999999997e-05,-165.54321151735
19.12,1.4466666666663e-05,165.64553709855,9.8084429678783e-05,3.5172358804007e-05,1.4466666666663e-05,-165.64553709875
19.13,1.428333333333e-05,165.74786267994,9.8254972314442e-05,3.5001816168348e-05,1.428333333333e-05,-165.74786268015
19.14,1.4099999999996e-05,165.85018826134,9.8425514950101e-05,3.4831273532689e-05,1.4099999999996e-05,-165.85018826154
19.15,1.3916666666663e-05,165.95251384273,9.859605758576e-05,3.466073089703e-05,1.3916666666663e-05,-165.95251384294
19.16,1.373333333333e-05,166.05483942413,9.8766600221419e-05,3.4490188261371e-05,1.373333333333e-05,-166.05483942433
19.17,1.3549999999996e-05,166.15716500552,9.8937142857078e-05,3.4319645625712e-05,1.3549999999996e-05,-166.15716500573
19.18,1.3366666666663e-05,166.25949058692,9.9107685492737e-05,3.4149102990053e-05,1.3366666666663e-05,-166.25949058712
19.19,1.318333333333e-05,166.36181616831,9.9278228128395e-05,3.3978560354394e-05,1.318333333333e-05,-166.36181616852
19.2,1.2999999999996e-05,166.46414174971,9.9448770764054e-05,3.3808017718735e-05,1.2999999999996e-05,-166.46414174991
19.21,1.2816666666663e-05,166.56646733111,9.9619313399713e-05,3.3637475083076e-05,1.2816666666663e-05,-166.56646733131
19.22,1.263333333333e-05,166.6687929125,9.9789856035372e-05,3.3466932447418e-05,1.263333333333e-05,-166.6687929127
19.23,1.2449999999996e-05,166.7711184939,9.9960398671031e-05,3.3296389811759e-05,1.2449999999996e-05,-166.7711184941
19.24,1.2266666666663e-05,166.87344407529,0.00010013094130669,3.31258471761e-05,1.2266666666663e-05,-166.87344407549
19.25,1.2083333333329e-05,166.97576965669,0.00010030148394235,3.2955304540441e-05,1.2083333333329e-05,-166.97576965689
19.26,1.1899999999996e-05,167.07809523808,0.00010047202657801,3.2784761904782e-05,1.1899999999996e-05,-167.07809523828
19.27,1.1716666666663e-05,167.18042081948,0.00010064256921367,3.2614219269123e-05,1.1716666666663e-05,-167.18042081968
19.28,1.1533333333329e-05,167.28274640087,0.00010081311184933,3.2443676633464e-05,1.1533333333329e-05,-167.28274640108
19.29,1.1349999999996e-05,167.38507198227,0.00010098365448498,3.2273133997805e-05,1.1349999999996e-05,-167.38507198247
19.3,1.1166666666663e-05,167.48739756366,0.00010115419712064,3.2102591362146e-05,1.1166666666663e-05,-167.48739756387
19.31,1.0983333333329e-05,167.58972314506,0.0001013247397563,3.1932048726487e-05,1.0983333333329e-05,-167.58972314526
19.32,1.0799999999996e-05,167.69204872645,0.00010149528239196,3.1761506090828e-05,1.0799999999996e-05,-167.69204872666
19.33,1.0616666666663e-05,167.79437430785,0.00010166582502762,3.1590963455169e-05,1.0616666666663e-05,-167.79437430805
19.34,1.0433333333329e-05,167.89669988925,0.00010183636766328,3.142042081951e-05,1.0433333333329e-05,-167.89669988945
19.35,1.0249999999996e-05,167.99902547064,0.00010200691029894,3.1249878183851e-05,1.0249999999996e-05,-167.99902547084
19.36,1.0066666666663e-05,168.10135105204,0.0001021774529346,3.1079335548192e-05,1.0066666666663e-05,-168.10135105224
19.37,9.8833333333291e-06,168.20367663343,0.00010234799557026,3.0908792912533e-05,9.8833333333291e-06,-168.20367663363
19.38,9.6999999999958e-06,168.30600221483,0.00010251853820592,3.0738250276874e-05,9.6999999999958e-06,-168.30600221503
19.39,9.5166666666624e-06,168.40832779622,0.00010268908084157,3.0567707641216e-05,9.5166666666624e-06,-168.40832779642
19.4,9.3333333333291e-06,168.51065337762,0.00010285962347723,3.0397165005557e-05,9.3333333333291e-06,-168.51065337782
19.41,9.1499999999957e-06,168.61297895901,0.00010303016611289,3.0226622369898e-05,9.1499999999957e-06,-168.61297895922
19.42,8.9666666666623e-06,168.71530454041,0.00010320070874855,3.0056079734239e-05,8.9666666666623e-06,-168.71530454061
19.43,8.783333333329e-06,168.8176301218,0.00010337125138421,2.988553709858e-05,8.783333333329e-06,-168.81763012201
19.44,8.5999999999956e-06,168.9199557032,0.00010354179401987,2.9714994462921e-05,8.5999999999956e-06,-168.9199557034
19.45,8.4166666666623e-06,169.02228128459,0.00010371233665553,2.9544451827262e-05,8.4166666666623e-06,-169.0222812848
19.46,8.2333333333289e-06,169.12460686599,0.00010388287929119,2.9373909191603e-05,8.2333333333289e-06,-169.12460686619
19.47,8.0499999999955e-06,169.22693244739,0.00010405342192685,2.9203366555944e-05,8.0499999999955e-06,-169.22693244759
19.48,7.8666666666622e-06,169.32925802878,0.0001042239645625,2.9032823920285e-05,7.8666666666622e-06,-169.32925802898
19.49,7.6833333333288e-06,169.43158361018,0.00010439450719816,2.8862281284626e-05,7.6833333333288e-06,-169.43158361038
19.5,7.4999999999954e-06,169.53390919157,0.00010456504983382,2.8691738648967e-05,7.4999999999954e-06,-169.53390919177
19.51,7.3166666666621e-06,169.63623477297,0.00010473559246948,2.8521196013308e-05,7.3166666666621e-06,-169.63623477317
19.52,7.1333333333287e-06,169.73856035436,0.00010490613510514,2.8350653377649e-05,7.1333333333287e-06,-169.73856035456
19.53,6.9499999999954e-06,169.84088593576,0.0001050766777408,2.818011074199e-05,6.9499999999954e-06,-169.84088593596
19.54,6.766666666662e-06,169.94321151715,0.00010524722037646,2.8009568106331e-05,6.766666666662e-06,-169.94321151736
19.55,6.5833333333286e-06,170.04553709855,0.00010541776301212,2.7839025470672e-05,6.5833333333286e-06,-170.04553709875
19.56,6.3999999999953e-06,170.14786267994,0.00010558830564778,2.7668482835014e-05,6.3999999999953e-06,-170.14786268015
19.57,6.2166666666619e-06,170.25018826134,0.00010575884828344,2.7497940199355e-05,6.2166666666619e-06,-170.25018826154
19.58,6.0333333333286e-06,170.35251384273,0.00010592939091909,2.7327397563696e-05,6.0333333333286e-06,-170.35251384294
19.59,5.8499999999952e-06,170.45483942413,0.00010609993355475,2.7156854928037e-05,5.8499999999952e-06,-170.45483942433
19.6,5.6666666666618e-06,170.55716500552,0.00010627047619041,2.6986312292378e-05,5.6666666666618e-06,-170.55716500573
19.61,5.4833333333285e-06,170.65949058692,0.00010644101882607,2.6815769656719e-05,5.4833333333285e-06,-170.65949058712
19.62,5.2999999999951e-06,170.76181616832,0.00010661156146173,2.664522702106e-05,5.2999999999951e-06,-170.76181616852
19.63,5.1166666666617e-06,170.86414174971,0.00010678210409739,2.6474684385401e-05,5.1166666666617e-06,-170.86414174991
19.64,4.9333333333284e-06,170.96646733111,0.00010695264673305,2.6304141749742e-05,4.9333333333284e-06,-170.96646733131
19.65,4.749999999995e-06,171.0687929125,0.00010712318936871,2.6133599114083e-05,4.749999999995e-06,-171.0687929127
19.66,4.5666666666617e-06,171.1711184939,0.00010729373200437,2.5963056478424e-05,4.5666666666617e-06,-171.1711184941
19.67,4.3833333333283e-06,171.27344407529,0.00010746427464002,2.5792513842765e-05,4.3833333333283e-06,-171.27344407549
19.68,4.1999999999949e-06,171.37576965669,0.00010763481727568,2.5621971207106e-05,4.1999999999949e-06,-171.37576965689
19.69,4.0166666666616e-06,171.47809523808,0.00010780535991134,2.5451428571447e-05,4.0166666666616e-06,-171.47809523829
19.7,3.8333333333282e-06,171.58042081948,0.000107975902547,2.5280885935788e-05,3.8333333333282e-06,-171.58042081968
19.71,3.6499999999948e-06,171.68274640087,0.00010814644518266,2.5110343300129e-05,3.6499999999948e-06,-171.68274640108
19.72,3.4666666666615e-06,171.78507198227,0.00010831698781832,2.493980066447e-05,3.4666666666615e-06,-171.78507198247
19.73,3.2833333333281e-06,171.88739756366,0.00010848753045398,2.4769258028812e-05,3.2833333333281e-06,-171.88739756387
19.74,3.0999999999947e-06,171.98972314506,0.00010865807308964,2.4598715393153e-05,3.0999999999947e-06,-171.98972314526
19.75,2.9166666666614e-06,172.09204872646,0.0001088286157253,2.4428172757494e-05,2.9166666666614e-06,-172.09204872666
19.76,2.733333333328e-06,172.19437430785,0.00010899915836096,2.4257630121835e-05,2.733333333328e-06,-172.19437430805
19.77,2.5499999999947e-06,172.29669988925,0.00010916970099661,2.4087087486176e-05,2.5499999999947e-06,-172.29669988945
19.78,2.3666666666613e-06,172.39902547064,0.00010934024363227,2.3916544850517e-05,2.3666666666613e-06,-172.39902547084
19.79,2.1833333333279e-06,172.50135105204,0.00010951078626793,2.3746002214858e-05,2.1833333333279e-06,-172.50135105224
19.8,1.9999999999946e-06,172.60367663343,0.00010968132890359,2.3575459579199e-05,1.9999999999946e-06,-172.60367663363
19.81,1.8166666666612e-06,172.70600221483,0.00010985187153925,2.340491694354e-05,1.8166666666612e-06,-172.70600221503
19.82,1.6333333333279e-06,172.80832779622,0.00011002241417491,2.3234374307881e-05,1.6333333333279e-06,-172.80832779643
19.83,1.4499999999945e-06,172.91065337762,0.00011019295681057,2.3063831672222e-05,1.4499999999945e-06,-172.91065337782
19.84,1.2666666666611e-06,173.01297895901,0.00011036349944623,2.2893289036563e-05,1.2666666666611e-06,-173.01297895922
19.85,1.0833333333278e-06,173.11530454041,0.00011053404208189,2.2722746400904e-05,1.0833333333278e-06,-173.11530454061
19.86,8.9999999999441e-07,173.2176301218,0.00011070458471754,2.2552203765245e-05,8.9999999999441e-07,-173.21763012201
19.87,7.1666666666104e-07,173.3199557032,0.0001108751273532,2.2381661129586e-05,7.1666666666104e-07,-173.3199557034
19.88,5.333333333277e-07,173.4222812846,0.00011104566998886,2.2211118493927e-05,5.333333333277e-07,-173.4222812848
19.89,3.4999999999433e-07,173.52460686599,0.00011121621262452,2.2040575858268e-05,3.4999999999433e-07,-173.52460686619
19.9,1.6666666666096e-07,173.62693244739,0.00011138675526018,2.187003322261e-05,1.6666666666096e-07,-173.62693244759
19.91,-1.6666666672395e-08,173.72925802878,0.00011155729789584,2.1699490586951e-05,-1.6666666672395e-08,-173.72925802898
19.92,-2.0000000000576e-07,173.83158361018,0.0001117278405315,2.1528947951292e-05,-2.0000000000576e-07,-173.83158361038
19.93,-3.8333333333913e-07,173.93390919157,0.00011189838316716,2.1358405315633e-05,-3.8333333333913e-07,-173.93390919177
19.94,-5.6666666667248e-07,174.03623477297,0.00011206892580282,2.1187862679974e-05,-5.6666666667248e-07,-174.03623477317
19.95,-7.5000000000585e-07,174.13856035436,0.00011223946843848,2.1017320044315e-05,-7.5000000000585e-07,-174.13856035457
19.96,-9.333333333392e-07,174.24088593576,0.00011241001107413,2.0846777408656e-05,-9.333333333392e-07,-174.24088593596
19.97,-1.1166666666726e-06,174.34321151715,0.00011258055370979,2.0676234772997e-05,-1.1166666666726e-06,-174.34321151736
19.98,-1.3000000000059e-06,174.44553709855,0.00011275109634545,2.0505692137338e-05,-1.3000000000059e-06,-174.44553709875
19.99,-1.4833333333393e-06,174.54786267994,0.00011292163898111,2.0335149501679e-05,-1.4833333333393e-06,-174.54786268015
20,-1.6666666666727e-06,174.65018826134,0.00011309218161677,2.016460686602e-05,-1.6666666666727e-06,-174.65018826154
20.01,-1.850000000006e-06,174.75251384273,0.00011326272425243,1.9994064230361e-05,-1.850000000006e-06,-174.75251384294
20.02,-2.0333333333394e-06,174.85483942413,0.00011343326688809,1.9823521594702e-05,-2.0333333333394e-06,-174.85483942433
20.03,-2.2166666666727e-06,174.95716500553,0.00011360380952375,1.9652978959043e-05,-2.2166666666727e-06,-174.95716500573
20.04,-2.4000000000061e-06,175.05949058692,0.00011377435215941,1.9482436323384e-05,-2.4000000000061e-06,-175.05949058712
20.05,-2.5833333333395e-06,175.16181616832,0.00011394489479506,1.9311893687725e-05,-2.5833333333395e-06,-175.16181616852
20.06,-2.7666666666728e-06,175.26414174971,0.00011411543743072,1.9141351052066e-05,-2.7666666666728e-06,-175.26414174991
20.07,-2.9500000000062e-06,175.36646733111,0.00011428598006638,1.8970808416408e-05,-2.9500000000062e-06,-175.36646733131
20.08,-3.1333333333396e-06,175.4687929125,0.00011445652270204,1.8800265780749e-05,-3.1333333333396e-06,-175.4687929127
20.09,-3.3166666666729e-06,175.5711184939,0.0001146270653377,1.862972314509e-05,-3.3166666666729e-06,-175.5711184941
20.1,-3.5000000000063e-06,175.67344407529,0.00011479760797336,1.8459180509431e-05,-3.5000000000063e-06,-175.6734440755
20.11,-3.6833333333396e-06,175.77576965669,0.00011496815060902,1.8288637873772e-05,-3.6833333333396e-06,-175.77576965689
20.12,-3.866666666673e-06,175.87809523808,0.00011513869324468,1.8118095238113e-05,-3.866666666673e-06,-175.87809523829
20.13,-4.0500000000064e-06,175.98042081948,0.00011530923588034,1.7947552602454e-05,-4.0500000000064e-06,-175.98042081968
20.14,-4.2333333333397e-06,176.08274640087,0.00011547977851599,1.7777009966795e-05,-4.2333333333397e-06,-176.08274640108
20.15,-4.4166666666731e-06,176.18507198227,0.00011565032115165,1.7606467331136e-05,-4.4166666666731e-06,-176.18507198247
20.16,-4.6000000000065e-06,176.28739756367,0.00011582086378731,1.7435924695477e-05,-4.6000000000065e-06,-176.28739756387
20.17,-4.7833333333398e-06,176.38972314506,0.00011599140642297,1.7265382059818e-05,-4.7833333333398e-06,-176.38972314526
20.18,-4.9666666666732e-06,176.49204872646,0.00011616194905863,1.7094839424159e-05,-4.9666666666732e-06,-176.49204872666
20.19,-5.1500000000065e-06,176.59437430785,0.00011633249169429,1.69242967885e-05,-5.1500000000065e-06,-176.59437430805
20.2,-5.3333333333399e-06,176.69669988925,0.00011650303432995,1.6753754152841e-05,-5.3333333333399e-06,-176.69669988945
20.21,-5.5166666666733e-06,176.79902547064,0.00011667357696561,1.6583211517182e-05,-5.5166666666733e-06,-176.79902547084
20.22,-5.7000000000066e-06,176.90135105204,0.00011684411960127,1.6412668881523e-05,-5.7000000000066e-06,-176.90135105224
20.23,-5.88333333334e-06,177.00367663343,0.00011701466223693,1.6242126245864e-05,-5.88333333334e-06,-177.00367663364
20.24,-6.0666666666734e-06,177.10600221483,0.00011718520487258,1.6071583610205e-05,-6.0666666666734e-06,-177.10600221503
20.25,-6.2500000000067e-06,177.20832779622,0.00011735574750824,1.5901040974547e-05,-6.2500000000067e-06,-177.20832779643
20.26,-6.4333333333401e-06,177.31065337762,0.0001175262901439,1.5730498338888e-05,-6.4333333333401e-06,-177.31065337782
20.27,-6.6166666666734e-06,177.41297895901,0.00011769683277956,1.5559955703229e-05,-6.6166666666734e-06,-177.41297895922
20.28,-6.8000000000068e-06,177.51530454041,0.00011786737541522,1.538941306757e-05,-6.8000000000068e-06,-177.51530454061
20.29,-6.9833333333402e-06,177.61763012181,0.00011803791805088,1.5218870431911e-05,-6.9833333333402e-06,-177.61763012201
20.3,-7.1666666666735e-06,177.7199557032,0.00011820846068654,1.5048327796252e-05,-7.1666666666735e-06,-177.7199557034
20.31,-7.3500000000069e-06,177.8222812846,0.0001183790033222,1.4877785160593e-05,-7.3500000000069e-06,-177.8222812848
20.32,-7.5333333333402e-06,177.92460686599,0.00011854954595786,1.4707242524934e-05,-7.5333333333402e-06,-177.92460686619
20.33,-7.7166666666736e-06,178.02693244739,0.00011872008859351,1.4536699889275e-05,-7.7166666666736e-06,-178.02693244759
20.34,-7.900000000007e-06,178.12925802878,0.00011889063122917,1.4366157253616e-05,-7.900000000007e-06,-178.12925802898
20.35,-8.0833333333403e-06,178.23158361018,0.00011906117386483,1.4195614617957e-05,-8.0833333333403e-06,-178.23158361038
20.36,-8.2666666666737e-06,178.33390919157,0.00011923171650049,1.4025071982298e-05,-8.2666666666737e-06,-178.33390919178
20.37,-8.4500000000071e-06,178.43623477297,0.00011940225913615,1.3854529346639e-05,-8.4500000000071e-06,-178.43623477317
20.38,-8.6333333333404e-06,178.53856035436,0.00011957280177181,1.368398671098e-05,-8.6333333333404e-06,-178.53856035457
20.39,-8.8166666666738e-06,178.64088593576,0.00011974334440747,1.3513444075321e-05,-8.8166666666738e-06,-178.64088593596
20.4,-9.0000000000071e-06,178.74321151715,0.00011991388704313,1.3342901439662e-05,-9.0000000000071e-06,-178.74321151736
20.41,-9.1833333333405e-06,178.84553709855,0.00012008442967879,1.3172358804004e-05,-9.1833333333405e-06,-178.84553709875
20.42,-9.3666666666739e-06,178.94786267994,0.00012025497231445,1.3001816168345e-05,-9.3666666666739e-06,-178.94786268015
20.43,-9.5500000000072e-06,179.05018826134,0.0001204255149501,1.2831273532686e-05,-9.5500000000072e-06,-179.05018826154
20.44,-9.7333333333406e-06,179.15251384274,0.00012059605758576,1.2660730897027e-05,-9.7333333333406e-06,-179.15251384294
20.45,-9.9166666666739e-06,179.25483942413,0.00012076660022142,1.2490188261368e-05,-9.9166666666739e-06,-179.25483942433
20.46,-1.0100000000007e-05,179.35716500553,0.00012093714285708,1.2319645625709e-05,-1.0100000000007e-05,-179.35716500573
20.47,-1.0283333333341e-05,179.45949058692,0.00012110768549274,1.214910299005e-05,-1.0283333333341e-05,-179.45949058712
20.48,-1.0466666666674e-05,179.56181616832,0.0001212782281284,1.1978560354391e-05,-1.0466666666674e-05,-179.56181616852
20.49,-1.0650000000007e-05,179.66414174971,0.00012144877076406,1.1808017718732e-05,-1.0650000000007e-05,-179.66414174991
20.5,-1.0833333333341e-05,179.76646733111,0.00012161931339972,1.1637475083073e-05,-1.0833333333341e-05,-179.76646733131
20.51,-1.1016666666674e-05,179.8687929125,0.00012178985603538,1.1466932447414e-05,-1.1016666666674e-05,-179.86879291271
20.52,-1.1200000000007e-05,179.9711184939,0.00012196039867103,1.1296389811755e-05,-1.1200000000007e-05,-179.9711184941
20.53,-1.1383333333341e-05,180.07344407529,0.00012213094130669,1.1125847176096e-05,-1.1383333333341e-05,-180.0734440755
20.54,-1.1566666666674e-05,180.17576965669,0.00012230148394235,1.0955304540437e-05,-1.1566666666674e-05,-180.17576965689
20.55,-1.1750000000008e-05,180.27809523808,0.00012247202657801,1.0784761904778e-05,-1.1750000000008e-05,-180.27809523829
20.56,-1.1933333333341e-05,180.38042081948,0.00012264256921367,1.0614219269119e-05,-1.1933333333341e-05,-180.38042081968
20.57,-1.2116666666674e-05,180.48274640088,0.00012281311184933,1.044367663346e-05,-1.2116666666674e-05,-180.48274640108
20.58,-1.2300000000008e-05,180.58507198227,0.00012298365448499,1.0273133997802e-05,-1.2300000000008e-05,-180.58507198247
20.59,-1.2483333333341e-05,180.68739756367,0.00012315419712065,1.0102591362143e-05,-1.2483333333341e-05,-180.68739756387
20.6,-1.2666666666674e-05,180.78972314506,0.00012332473975631,9.9320487264836e-06,-1.2666666666674e-05,-180.78972314526
20.61,-1.2850000000008e-05,180.89204872646,0.00012349528239197,9.7615060908247e-06,-1.2850000000008e-05,-180.89204872666
20.62,-1.3033333333341e-05,180.99437430785,0.00012366582502762,9.5909634551657e-06,-1.3033333333341e-05,-180.99437430805
20.63,-1.3216666666674e-05,181.09669988925,0.00012383636766328,9.4204208195068e-06,-1.3216666666674e-05,-181.09669988945
20.64,-1.3400000000008e-05,181.19902547064,0.00012400691029894,9.2498781838479e-06,-1.3400000000008e-05,-181.19902547085
20.65,-1.3583333333341e-05,181.30135105204,0.0001241774529346,9.0793355481889e-06,-1.3583333333341e-05,-181.30135105224
20.66,-1.3766666666675e-05,181.40367663343,0.00012434799557026,8.90879291253e-06,-1.3766666666675e-05,-181.40367663364
20.67,-1.3950000000008e-05,181.50600221483,0.00012451853820592,8.738250276871e-06,-1.3950000000008e-05,-181.50600221503
20.68,-1.4133333333341e-05,181.60832779622,0.00012468908084158,8.5677076412121e-06,-1.4133333333341e-05,-181.60832779643
20.69,-1.4316666666675e-05,181.71065337762,0.00012485962347724,8.3971650055532e-06,-1.4316666666675e-05,-181.71065337782
20.7,-1.4500000000008e-05,181.81297895901,0.0001250301661129,8.2266223698942e-06,-1.4500000000008e-05,-181.81297895922
20.71,-1.4683333333341e-05,181.91530454041,0.00012520070874855,8.0560797342353e-06,-1.4683333333341e-05,-181.91530454061
20.72,-1.4866666666675e-05,182.01763012181,0.00012537125138421,7.8855370985763e-06,-1.4866666666675e-05,-182.01763012201
20.73,-1.5050000000008e-05,182.1199557032,0.00012554179401987,7.7149944629174e-06,-1.5050000000008e-05,-182.1199557034
20.74,-1.5233333333341e-05,182.2222812846,0.00012571233665553,7.5444518272584e-06,-1.5233333333341e-05,-182.2222812848
20.75,-1.5416666666675e-05,182.32460686599,0.00012588287929119,7.3739091915995e-06,-1.5416666666675e-05,-182.32460686619
20.76,-1.5600000000008e-05,182.42693244739,0.00012605342192685,7.2033665559406e-06,-1.5600000000008e-05,-182.42693244759
20.77,-1.5783333333342e-05,182.52925802878,0.00012622396456251,7.0328239202816e-06,-1.5783333333342e-05,-182.52925802899
20.78,-1.5966666666675e-05,182.63158361018,0.00012639450719817,6.8622812846227e-06,-1.5966666666675e-05,-182.63158361038
20.79,-1.6150000000008e-05,182.73390919157,0.00012656504983383,6.6917386489637e-06,-1.6150000000008e-05,-182.73390919178
20.8,-1.6333333333342e-05,182.83623477297,0.00012673559246949,6.5211960133048e-06,-1.6333333333342e-05,-182.83623477317
20.81,-1.6516666666675e-05,182.93856035436,0.00012690613510514,6.3506533776458e-06,-1.6516666666675e-05,-182.93856035457
20.82,-1.6700000000008e-05,183.04088593576,0.0001270766777408,6.1801107419869e-06,-1.6700000000008e-05,-183.04088593596
20.83,-1.6883333333342e-05,183.14321151715,0.00012724722037646,6.009568106328e-06,-1.6883333333342e-05,-183.14321151736
20.84,-1.7066666666675e-05,183.24553709855,0.00012741776301212,5.839025470669e-06,-1.7066666666675e-05,-183.24553709875
20.85,-1.7250000000008e-05,183.34786267995,0.00012758830564778,5.6684828350101e-06,-1.7250000000008e-05,-183.34786268015
20.86,-1.7433333333342e-05,183.45018826134,0.00012775884828344,5.4979401993511e-06,-1.7433333333342e-05,-183.45018826154
20.87,-1.7616666666675e-05,183.55251384274,0.0001279293909191,5.3273975636922e-06,-1.7616666666675e-05,-183.55251384294
20.88,-1.7800000000009e-05,183.65483942413,0.00012809993355476,5.1568549280333e-06,-1.7800000000009e-05,-183.65483942433
20.89,-1.7983333333342e-05,183.75716500553,0.00012827047619042,4.9863122923743e-06,-1.7983333333342e-05,-183.75716500573
20.9,-1.8166666666675e-05,183.85949058692,0.00012844101882607,4.8157696567154e-06,-1.8166666666675e-05,-183.85949058712
20.91,-1.8350000000009e-05,183.96181616832,0.00012861156146173,4.6452270210564e-06,-1.8350000000009e-05,-183.96181616852
20.92,-1.8533333333342e-05,184.06414174971,0.00012878210409739,4.4746843853975e-06,-1.8533333333342e-05,-184.06414174992
20.93,-1.8716666666675e-05,184.16646733111,0.00012895264673305,4.3041417497385e-06,-1.8716666666675e-05,-184.16646733131
20.94,-1.8900000000009e-05,184.2687929125,0.00012912318936871,4.1335991140796e-06,-1.8900000000009e-05,-184.26879291271
20.95,-1.9083333333342e-05,184.3711184939,0.00012929373200437,3.9630564784207e-06,-1.9083333333342e-05,-184.3711184941
20.96,-1.9266666666675e-05,184.47344407529,0.00012946427464003,3.7925138427617e-06,-1.9266666666675e-05,-184.4734440755
20.97,-1.9450000000009e-05,184.57576965669,0.00012963481727569,3.6219712071028e-06,-1.9450000000009e-05,-184.57576965689
20.98,-1.9633333333342e-05,184.67809523809,0.00012980535991135,3.4514285714438e-06,-1.9633333333342e-05,-184.67809523829
20.99,-1.9816666666676e-05,184.78042081948,0.000129975902547,3.2808859357849e-06,-1.9816666666676e-05,-184.78042081968
21,-1.9999999999981e-05,184.88274640086,0.00013014644518264,3.1103433001522e-06,-1.9999999999981e-05,-184.88274640106
21.01,-1.9599999999981e-05,181.68274640086,0.00013014644518264,3.1103433001522e-06,-1.9599999999981e-05,-181.68274640106
21.02,-1.9199999999981e-05,178.48274640086,0.00013014644518264,3.1103433001522e-06,-1.9199999999981e-05,-178.48274640106
21.03,-1.879999999998e-05,175.28274640086,0.00013014644518264,3.1103433001522e-06,-1.879999999998e-05,-175.28274640106
21.04,-1.839999999998e-05,172.08274640086,0.00013014644518264,3.1103433001522e-06,-1.839999999998e-05,-172.08274640106
21.05,-1.799999999998e-05,168.88274640086,0.00013014644518264,3.1103433001522e-06,-1.799999999998e-05,-168.88274640106
21.06,-1.759999999998e-05,165.68274640086,0.00013014644518264,3.1103433001522e-06,-1.759999999998e-05,-165.68274640106
21.07,-1.719999999998e-05,162.48274640086,0.00013014644518264,3.1103433001522e-06,-1.719999999998e-05,-162.48274640106
21.08,-1.679999999998e-05,159.28274640086,0.00013014644518264,3.1103433001522e-06,-1.679999999998e-05,-159.28274640106
21.09,-1.639999999998e-05,156.08274640086,0.00013014644518264,3.1103433001522e-06,-1.639999999998e-05,-156.08274640106
21.1,-1.599999999998e-05,152.88274640086,0.00013014644518264,3.1103433001522e-06,-1.599999999998e-05,-152.88274640106
21.110000000001,-1.559999999998e-05,149.68274640085,0.00013014644518264,3.1103433001522e-06,-1.559999999998e-05,-149.68274640106
21.120000000001,-1.519999999998e-05,146.48274640085,0.00013014644518264,3.1103433001522e-06,-1.519999999998e-05,-146.48274640106
21.130000000001,-1.479999999998e-05,143.28274640085,0.00013014644518264,3.1103433001522e-06,-1.479999999998e-05,-143.28274640106
21.140000000001,-1.439999999998e-05,140.08274640085,0.00013014644518264,3.1103433001522e-06,-1.439999999998e-05,-140.08274640106
21.150000000001,-1.399999999998e-05,136.88274640085,0.00013014644518264,3.1103433001522e-06,-1.399999999998e-05,-136.88274640106
21.160000000001,-1.359999999998e-05,133.68274640085,0.00013014644518264,3.1103433001522e-06,-1.359999999998e-05,-133.68274640105
21.170000000001,-1.319999999998e-05,130.48274640085,0.00013014644518264,3.1103433001522e-06,-1.319999999998e-05,-130.48274640105
21.180000000001,-1.279999999998e-05,127.28274640085,0.00013014644518264,3.1103433001522e-06,-1.279999999998e-05,-127.28274640105
21.190000000001,-1.2399999999979e-05,124.08274640085,0.00013014644518264,3.1103433001522e-06,-1.2399999999979e-05,-124.08274640105
21.200000000001,-1.1999999999979e-05,120.88274640085,0.00013014644518264,3.1103433001522e-06,-1.1999999999979e-05,-120.88274640105
21.210000000001,-1.1599999999979e-05,117.68274640085,0.00013014644518264,3.1103433001522e-06,-1.1599999999979e-05,-117.68274640105
21.220000000001,-1.1199999999979e-05,114.48274640085,0.00013014644518264,3.1103433001522e-06,-1.1199999999979e-05,-114.48274640105
21.230000000001,-1.0799999999979e-05,111.28274640085,0.00013014644518264,3.1103433001522e-06,-1.0799999999979e-05,-111.28274640105
21.240000000001,-1.0399999999979e-05,108.08274640085,0.00013014644518264,3.1103433001522e-06,-1.0399999999979e-05,-108.08274640105
21.250000000001,-9.9999999999791e-06,104.88274640085,0.00013014644518264,3.1103433001522e-06,-9.9999999999791e-06,-104.88274640105
21.260000000001,-9.599999999979e-06,101.68274640085,0.00013014644518264,3.1103433001522e-06,-9.599999999979e-06,-101.68274640105
21.270000000001,-9.199999999979e-06,98.482746400847,0.00013014644518264,3.1103433001522e-06,-9.199999999979e-06,-98.482746401049
21.280000000001,-8.7999999999789e-06,95.282746400846,0.00013014644518264,3.1103433001522e-06,-8.7999999999789e-06,-95.282746401049
21.290000000001,-8.3999999999789e-06,92.082746400846,0.00013014644518264,3.1103433001522e-06,-8.3999999999789e-06,-92.082746401048
21.300000000001,-7.9999999999788e-06,88.882746400845,0.00013014644518264,3.1103433001522e-06,-7.9999999999788e-06,-88.882746401048
21.310000000001,-7.5999999999787e-06,85.682746400845,0.00013014644518264,3.1103433001522e-06,-7.5999999999787e-06,-85.682746401047
21.320000000001,-7.1999999999787e-06,82.482746400844,0.00013014644518264,3.1103433001522e-06,-7.1999999999787e-06,-82.482746401047
21.330000000001,-6.7999999999786e-06,79.282746400844,0.00013014644518264,3.1103433001522e-06,-6.7999999999786e-06,-79.282746401046
21.340000000001,-6.3999999999785e-06,76.082746400843,0.00013014644518264,3.1103433001522e-06,-6.3999999999786e-06,-76.082746401046
21.350000000001,-5.9999999999785e-06,72.882746400843,0.00013014644518264,3.1103433001522e-06,-5.9999999999785e-06,-72.882746401045
21.360000000001,-5.5999999999784e-06,69.682746400842,0.00013014644518264,3.1103433001522e-06,-5.5999999999784e-06,-69.682746401045
21.370000000001,-5.1999999999784e-06,66.482746400842,0.00013014644518264,3.1103433001522e-06,-5.1999999999784e-06,-66.482746401044
21.380000000001,-4.7999999999783e-06,63.282746400841,0.00013014644518264,3.1103433001522e-06,-4.7999999999783e-06,-63.282746401044
21.390000000001,-4.3999999999782e-06,60.082746400841,0.00013014644518264,3.1103433001522e-06,-4.3999999999782e-06,-60.082746401043
21.400000000001,-3.9999999999782e-06,56.88274640084,0.00013014644518264,3.1103433001522e-06,-3.9999999999782e-06,-56.882746401043
21.410000000001,-3.5999999999781e-06,53.68274640084,0.00013014644518264,3.1103433001522e-06,-3.5999999999781e-06,-53.682746401042
21.420000000001,-3.199999999978e-06,50.482746400839,0.00013014644518264,3.1103433001522e-06,-3.199999999978e-06,-50.482746401042
21.430000000001,-2.799999999978e-06,47.282746400839,0.00013014644518264,3.1103433001522e-06,-2.799999999978e-06,-47.282746401041
21.440000000001,-2.3999999999779e-06,44.082746400838,0.00013014644518264,3.1103433001522e-06,-2.3999999999779e-06,-44.082746401041
21.450000000001,-1.9999999999779e-06,40.882746400838,0.00013014644518264,3.1103433001522e-06,-1.9999999999779e-06,-40.88274640104
21.460000000001,-1.5999999999778e-06,37.682746400837,0.00013014644518264,3.1103433001522e-06,-1.5999999999778e-06,-37.68274640104
21.470000000001,-1.1999999999777e-06,34.482746400837,0.00013014644518264,3.1103433001522e-06,-1.1999999999777e-06,-34.482746401039
21.480000000001,-7.9999999997767e-07,31.282746400836,0.00013014644518264,3.1103433001522e-06,-7.9999999997767e-07,-31.282746401039
21.490000000001,-3.9999999997761e-07,28.082746400836,0.00013014644518264,3.1103433001522e-06,-3.9999999997761e-07,-28.082746401038
21.500000000001,2.2453149365817e-17,24.882746400835,0.00013014644518264,3.1103433001522e-06,2.2453149365817e-17,-24.882746401038
21.510000000001,4.0000000002251e-07,21.682746400835,0.00013014644518264,3.1103433001522e-06,4.0000000002251e-07,-21.682746401037
21.520000000001,8.0000000002258e-07,18.482746400834,0.00013014644518264,3.1103433001522e-06,8.0000000002258e-07,-18.482746401037
21.530000000001,1.2000000000226e-06,15.282746400834,0.00013014644518264,3.1103433001522e-06,1.2000000000226e-06,-15.282746401036
21.540000000001,1.6000000000227e-06,12.082746400833,0.00013014644518264,3.1103433001522e-06,1.6000000000227e-06,-12.082746401036
21.550000000001,2.0000000000228e-06,8.8827464008327,0.00013014644518264,3.1103433001522e-06,2.0000000000228e-06,-8.8827464010352
21.560000000001,2.4000000000228e-06,5.6827464008322,0.00013014644518264,3.1103433001522e-06,2.4000000000228e-06,-5.6827464010347
21.570000000001,2.8000000000229e-06,2.4827464008316,0.00013014644518264,3.1103433001522e-06,2.8000000000229e-06,-2.4827464010342
21.580000000001,3.200000000023e-06,0.71725359916884,0.00013014644518264,3.1103433001522e-06,3.200000000023e-06,0.71725359896631
21.590000000001,3.600000000023e-06,3.9172535991694,0.00013014644518264,3.1103433001522e-06,3.600000000023e-06,3.9172535989668
21.600000000001,4.0000000000231e-06,7.1172535991699,0.00013014644518264,3.1103433001522e-06,4.0000000000231e-06,7.1172535989673
21.610000000001,4.4000000000231e-06,10.31725359917,0.00013014644518264,3.1103433001522e-06,4.4000000000231e-06,10.317253598968
21.620000000001,4.8000000000232e-06,13.517253599171,0.00013014644518264,3.1103433001522e-06,4.8000000000232e-06,13.517253598968
21.630000000001,5.2000000000233e-06,16.717253599171,0.00013014644518264,3.1103433001522e-06,5.2000000000233e-06,16.717253598969
21.640000000001,5.6000000000233e-06,19.917253599172,0.00013014644518264,3.1103433001522e-06,5.6000000000233e-06,19.917253598969
21.650000000001,6.0000000000234e-06,23.117253599172,0.00013014644518264,3.1103433001522e-06,6.0000000000234e-06,23.11725359897
21.660000000001,6.4000000000235e-06,26.317253599173,0.00013014644518264,3.1103433001522e-06,6.4000000000235e-06,26.31725359897
21.670000000001,6.8000000000235e-06,29.517253599173,0.00013014644518264,3.1103433001522e-06,6.8000000000235e-06,29.517253598971
21.680000000001,7.2000000000236e-06,32.717253599174,0.00013014644518264,3.1103433001522e-06,7.2000000000236e-06,32.717253598971
21.690000000001,7.6000000000236e-06,35.917253599174,0.00013014644518264,3.1103433001522e-06,7.6000000000236e-06,35.917253598972
21.700000000001,8.0000000000237e-06,39.117253599175,0.00013014644518264,3.1103433001522e-06,8.0000000000237e-06,39.117253598972
21.710000000001,8.4000000000238e-06,42.317253599175,0.00013014644518264,3.1103433001522e-06,8.4000000000238e-06,42.317253598973
21.720000000001,8.8000000000238e-06,45.517253599176,0.00013014644518264,3.1103433001522e-06,8.8000000000238e-06,45.517253598973
21.730000000001,9.2000000000239e-06,48.717253599176,0.00013014644518264,3.1103433001522e-06,9.2000000000239e-06,48.717253598974
21.740000000001,9.600000000024e-06,51.917253599177,0.00013014644518264,3.1103433001522e-06,9.600000000024e-06,51.917253598974
21.750000000001,1.0000000000024e-05,55.117253599177,0.00013014644518264,3.1103433001522e-06,1.0000000000024e-05,55.117253598975
21.760000000001,1.0400000000024e-05,58.317253599178,0.00013014644518264,3.1103433001522e-06,1.0400000000024e-05,58.317253598975
21.770000000001,1.0800000000024e-05,61.517253599178,0.00013014644518264,3.1103433001522e-06,1.0800000000024e-05,61.517253598976
21.780000000001,1.1200000000024e-05,64.717253599179,0.00013014644518264,3.1103433001522e-06,1.1200000000024e-05,64.717253598976
21.790000000001,1.1600000000024e-05,67.917253599179,0.00013014644518264,3.1103433001522e-06,1.1600000000024e-05,67.917253598977
21.800000000001,1.2000000000024e-05,71.11725359918,0.00013014644518264,3.1103433001522e-06,1.2000000000024e-05,71.117253598977
21.810000000001,1.2400000000024e-05,74.31725359918,0.00013014644518264,3.1103433001522e-06,1.2400000000024e-05,74.317253598978
21.820000000001,1.2800000000024e-05,77.517253599181,0.00013014644518264,3.1103433001522e-06,1.2800000000024e-05,77.517253598978
21.830000000001,1.3200000000025e-05,80.717253599181,0.00013014644518264,3.1103433001522e-06,1.3200000000025e-05,80.717253598979
21.840000000001,1.3600000000025e-05,83.917253599182,0.00013014644518264,3.1103433001522e-06,1.3600000000025e-05,83.917253598979
21.850000000001,1.4000000000025e-05,87.117253599182,0.00013014644518264,3.1103433001522e-06,1.4000000000025e-05,87.11725359898
21.860000000001,1.4400000000025e-05,90.317253599183,0.00013014644518264,3.1103433001522e-06,1.4400000000025e-05,90.31725359898
21.870000000001,1.4800000000025e-05,93.517253599183,0.00013014644518264,3.1103433001522e-06,1.4800000000025e-05,93.517253598981
21.880000000001,1.5200000000025e-05,96.717253599184,0.00013014644518264,3.1103433001522e-06,1.5200000000025e-05,96.717253598981
21.890000000001,1.5600000000025e-05,99.917253599184,0.00013014644518264,3.1103433001522e-06,1.5600000000025e-05,99.917253598982
21.900000000001,1.6000000000025e-05,103.11725359918,0.00013014644518264,3.1103433001522e-06,1.6000000000025e-05,103.11725359898
21.910000000001,1.6400000000025e-05,106.31725359919,0.00013014644518264,3.1103433001522e-06,1.6400000000025e-05,106.31725359898
21.920000000001,1.6800000000025e-05,109.51725359919,0.00013014644518264,3.1103433001522e-06,1.6800000000025e-05,109.51725359898
21.930000000001,1.7200000000025e-05,112.71725359919,0.00013014644518264,3.1103433001522e-06,1.7200000000025e-05,112.71725359898
21.940000000001,1.7600000000025e-05,115.91725359919,0.00013014644518264,3.1103433001522e-06,1.7600000000025e-05,115.91725359898
21.950000000001,1.8000000000025e-05,119.11725359919,0.00013014644518264,3.1103433001522e-06,1.8000000000025e-05,119.11725359898
21.960000000001,1.8400000000025e-05,122.31725359919,0.00013014644518264,3.1103433001522e-06,1.8400000000025e-05,122.31725359899
21.970000000001,1.8800000000025e-05,125.51725359919,0.00013014644518264,3.1103433001522e-06,1.8800000000025e-05,125.51725359899
21.980000000001,1.9200000000025e-05,128.71725359919,0.00013014644518264,3.1103433001522e-06,1.9200000000025e-05,128.71725359899
21.990000000001,1.9600000000026e-05,131.91725359919,0.00013014644518264,3.1103433001522e-06,1.9600000000026e-05,131.91725359899
22.000000000001,2.0000000000026e-05,135.11725359919,0.00013014644518264,3.1103433001522e-06,2.0000000000026e-05,135.11725359899
22.010000000001,2.0400000000026e-05,138.31725359919,0.00013014644518264,3.1103433001522e-06,2.0400000000026e-05,138.31725359899
22.020000000001,2.0800000000026e-05,141.51725359919,0.00013014644518264,3.1103433001522e-06,2.0800000000026e-05,141.51725359899
22.030000000001,2.1200000000026e-05,144.71725359919,0.00013014644518264,3.1103433001522e-06,2.1200000000026e-05,144.71725359899
22.040000000001,2.1600000000026e-05,147.91725359919,0.00013014644518264,3.1103433001522e-06,2.1600000000026e-05,147.91725359899
22.050000000001,2.2000000000026e-05,149.01935769656,0.0001304086821704,3.3725802879191e-06,2.2000000000026e-05,149.01935769685
22.060000000001,2.2400000000026e-05,149.2426135105,0.00013078077519365,3.7446733111633e-06,2.2400000000026e-05,149.2426135109
22.070000000001,2.2800000000026e-05,149.46586932446,0.0001311528682169,4.1167663344192e-06,2.2800000000026e-05,149.46586932485
22.080000000001,2.3200000000026e-05,149.68912513841,0.00013152496124016,4.4888593576751e-06,2.3200000000026e-05,149.68912513881
22.090000000001,2.3600000000026e-05,149.91238095236,0.00013189705426342,4.8609523809309e-06,2.3600000000026e-05,149.91238095276
22.100000000001,2.4000000000026e-05,150.13563676632,0.00013226914728667,5.2330454041868e-06,2.4000000000026e-05,150.13563676672
22.110000000001,2.4400000000026e-05,150.35889258027,0.00013264124030993,5.6051384274427e-06,2.4400000000026e-05,150.35889258067
22.120000000001,2.4800000000026e-05,150.58214839423,0.00013301333333318,5.9772314506986e-06,2.4800000000026e-05,150.58214839462
22.130000000001,2.5200000000026e-05,150.80540420818,0.00013338542635644,6.3493244739544e-06,2.5200000000026e-05,150.80540420858
22.140000000001,2.5600000000026e-05,151.02866002213,0.0001337575193797,6.7214174972103e-06,2.5600000000026e-05,151.02866002253
22.150000000001,2.6000000000027e-05,151.25191583609,0.00013412961240295,7.0935105204662e-06,2.6000000000027e-05,151.25191583648
22.160000000001,2.6400000000027e-05,151.47517165004,0.00013450170542621,7.465603543722e-06,2.6400000000027e-05,151.47517165044
22.170000000001,2.6800000000027e-05,151.69842746399,0.00013487379844946,7.8376965669779e-06,2.6800000000027e-05,151.69842746439
22.180000000001,2.7200000000027e-05,151.92168327795,0.00013524589147272,8.2097895902338e-06,2.7200000000027e-05,151.92168327834
22.190000000001,2.7600000000027e-05,152.1449390919,0.00013561798449598,8.5818826134897e-06,2.7600000000027e-05,152.1449390923
22.200000000001,2.8000000000027e-05,152.36819490585,0.00013599007751923,8.9539756367455e-06,2.8000000000027e-05,152.36819490625
22.210000000001,2.8400000000027e-05,152.59145071981,0.00013636217054249,9.3260686600014e-06,2.8400000000027e-05,152.5914507202
22.220000000001,2.8800000000027e-05,152.81470653376,0.00013673426356574,9.6981616832573e-06,2.8800000000027e-05,152.81470653416
22.230000000001,2.9200000000027e-05,153.03796234771,0.000137106356589,1.0070254706513e-05,2.9200000000027e-05,153.03796234811
22.240000000001,2.9600000000027e-05,153.26121816167,0.00013747844961225,1.0442347729769e-05,2.9600000000027e-05,153.26121816206
22.250000000001,3.0000000000027e-05,153.48447397562,0.00013785054263551,1.0814440753025e-05,3.0000000000027e-05,153.48447397602
22.260000000001,3.0400000000027e-05,153.70772978957,0.00013822263565877,1.1186533776281e-05,3.0400000000027e-05,153.70772978997
22.270000000001,3.0800000000027e-05,153.93098560353,0.00013859472868202,1.1558626799537e-05,3.0800000000027e-05,153.93098560393
22.280000000001,3.1200000000027e-05,154.15424141748,0.00013896682170528,1.1930719822793e-05,3.1200000000027e-05,154.15424141788
22.290000000001,3.1600000000027e-05,154.37749723144,0.00013933891472853,1.2302812846048e-05,3.1600000000027e-05,154.37749723183
22.300000000001,3.2000000000027e-05,154.60075304539,0.00013971100775179,1.2674905869304e-05,3.2000000000027e-05,154.60075304579
22.310000000001,3.2400000000028e-05,154.82400885934,0.00014008310077505,1.304699889256e-05,3.2400000000028e-05,154.82400885974
22.320000000001,3.2800000000028e-05,155.0472646733,0.0001404551937983,1.3419091915816e-05,3.2800000000028e-05,155.04726467369
22.330000000001,3.3200000000028e-05,155.27052048725,0.00014082728682156,1.3791184939072e-05,3.3200000000028e-05,155.27052048765
22.340000000001,3.3600000000028e-05,155.4937763012,0.00014119937984481,1.4163277962328e-05,3.3600000000028e-05,155.4937763016
22.350000000001,3.4000000000028e-05,155.71703211516,0.00014157147286807,1.4535370985584e-05,3.4000000000028e-05,155.71703211555
22.360000000001,3.4400000000028e-05,155.94028792911,0.00014194356589133,1.4907464008839e-05,3.4400000000028e-05,155.94028792951
22.370000000001,3.4800000000028e-05,156.16354374306,0.00014231565891458,1.5279557032095e-05,3.4800000000028e-05,156.16354374346
22.380000000001,3.5200000000028e-05,156.38679955702,0.00014268775193784,1.5651650055351e-05,3.5200000000028e-05,156.38679955741
22.390000000001,3.5600000000028e-05,156.61005537097,0.00014305984496109,1.6023743078607e-05,3.5600000000028e-05,156.61005537137
22.400000000001,3.6000000000028e-05,156.83331118492,0.00014343193798435,1.6395836101863e-05,3.6000000000028e-05,156.83331118532
22.410000000001,3.6400000000028e-05,157.05656699888,0.0001438040310076,1.6767929125119e-05,3.6400000000028e-05,157.05656699927
22.420000000001,3.6800000000028e-05,157.27982281283,0.00014417612403086,1.7140022148375e-05,3.6800000000028e-05,157.27982281323
22.430000000001,3.7200000000028e-05,157.50307862678,0.00014454821705412,1.7512115171631e-05,3.7200000000028e-05,157.50307862718
22.440000000001,3.7600000000028e-05,157.72633444074,0.00014492031007737,1.7884208194886e-05,3.7600000000028e-05,157.72633444114
22.450000000001,3.8000000000028e-05,157.94959025469,0.00014529240310063,1.8256301218142e-05,3.8000000000028e-05,157.94959025509
22.460000000001,3.8400000000028e-05,158.17284606864,0.00014566449612388,1.8628394241398e-05,3.8400000000028e-05,158.17284606904
22.470000000001,3.8800000000029e-05,158.3961018826,0.00014603658914714,1.9000487264654e-05,3.8800000000029e-05,158.396101883
22.480000000001,3.9200000000029e-05,158.61935769655,0.0001464086821704,1.937258028791e-05,3.9200000000029e-05,158.61935769695
22.490000000001,3.9600000000029e-05,158.84261351051,0.00014678077519365,1.9744673311166e-05,3.9600000000029e-05,158.8426135109
22.500000000001,4.0000000000029e-05,159.06586932446,0.00014715286821691,2.0116766334422e-05,4.0000000000029e-05,159.06586932486
22.510000000001,4.0400000000029e-05,159.28912513841,0.00014752496124016,2.0488859357678e-05,4.0400000000029e-05,159.28912513881
22.520000000001,4.0800000000029e-05,159.51238095237,0.00014789705426342,2.0860952380933e-05,4.0800000000029e-05,159.51238095276
22.530000000001,4.1200000000029e-05,159.73563676632,0.00014826914728667,2.1233045404189e-05,4.1200000000029e-05,159.73563676672
22.540000000001,4.1600000000029e-05,159.95889258027,0.00014864124030993,2.1605138427445e-05,4.1600000000029e-05,159.95889258067
22.550000000001,4.2000000000029e-05,160.18214839423,0.00014901333333319,2.1977231450701e-05,4.2000000000029e-05,160.18214839462
22.560000000001,4.2400000000029e-05,160.40540420818,0.00014938542635644,2.2349324473957e-05,4.2400000000029e-05,160.40540420858
22.570000000001,4.2800000000029e-05,160.62866002213,0.0001497575193797,2.2721417497213e-05,4.2800000000029e-05,160.62866002253
22.580000000001,4.3200000000029e-05,160.85191583609,0.00015012961240295,2.3093510520469e-05,4.3200000000029e-05,160.85191583648
22.590000000001,4.3600000000029e-05,161.07517165004,0.00015050170542621,2.3465603543725e-05,4.3600000000029e-05,161.07517165044
22.600000000001,4.4000000000029e-05,161.29842746399,0.00015087379844947,2.383769656698e-05,4.4000000000029e-05,161.29842746439
22.610000000001,4.4400000000029e-05,161.52168327795,0.00015124589147272,2.4209789590236e-05,4.4400000000029e-05,161.52168327835
22.620000000001,4.4800000000029e-05,161.7449390919,0.00015161798449598,2.4581882613492e-05,4.4800000000029e-05,161.7449390923
22.630000000001,4.520000000003e-05,161.96819490585,0.00015199007751923,2.4953975636748e-05,4.520000000003e-05,161.96819490625
22.640000000001,4.560000000003e-05,162.19145071981,0.00015236217054249,2.5326068660004e-05,4.560000000003e-05,162.19145072021
22.650000000001,4.600000000003e-05,162.41470653376,0.00015273426356575,2.569816168326e-05,4.600000000003e-05,162.41470653416
22.660000000001,4.640000000003e-05,162.63796234772,0.000153106356589,2.6070254706516e-05,4.640000000003e-05,162.63796234811
22.670000000001,4.680000000003e-05,162.86121816167,0.00015347844961226,2.6442347729772e-05,4.680000000003e-05,162.86121816207
22.680000000001,4.720000000003e-05,163.08447397562,0.00015385054263551,2.6814440753027e-05,4.720000000003e-05,163.08447397602
22.690000000001,4.760000000003e-05,163.30772978958,0.00015422263565877,2.7186533776283e-05,4.760000000003e-05,163.30772978997
22.700000000001,4.800000000003e-05,163.53098560353,0.00015459472868202,2.7558626799539e-05,4.800000000003e-05,163.53098560393
22.710000000001,4.840000000003e-05,163.75424141748,0.00015496682170528,2.7930719822795e-05,4.840000000003e-05,163.75424141788
22.720000000001,4.880000000003e-05,163.97749723144,0.00015533891472854,2.8302812846051e-05,4.880000000003e-05,163.97749723183
22.730000000001,4.920000000003e-05,164.20075304539,0.00015571100775179,2.8674905869307e-05,4.920000000003e-05,164.20075304579
22.740000000001,4.960000000003e-05,164.42400885934,0.00015608310077505,2.9046998892563e-05,4.960000000003e-05,164.42400885974
22.750000000001,5.000000000003e-05,164.6472646733,0.0001564551937983,2.9419091915819e-05,5.000000000003e-05,164.64726467369
22.760000000001,5.040000000003e-05,164.87052048725,0.00015682728682156,2.9791184939074e-05,5.040000000003e-05,164.87052048765
22.770000000001,5.080000000003e-05,165.0937763012,0.00015719937984482,3.016327796233e-05,5.080000000003e-05,165.0937763016
22.780000000001,5.120000000003e-05,165.31703211516,0.00015757147286807,3.0535370985586e-05,5.120000000003e-05,165.31703211555
22.790000000001,5.1600000000031e-05,165.54028792911,0.00015794356589133,3.0907464008842e-05,5.1600000000031e-05,165.54028792951
22.800000000001,5.2000000000031e-05,165.76354374306,0.00015831565891458,3.1279557032098e-05,5.2000000000031e-05,165.76354374346
22.810000000001,5.2400000000031e-05,165.98679955702,0.00015868775193784,3.1651650055354e-05,5.2400000000031e-05,165.98679955742
22.820000000001,5.2800000000031e-05,166.21005537097,0.0001590598449611,3.202374307861e-05,5.2800000000031e-05,166.21005537137
22.830000000001,5.3200000000031e-05,166.43331118493,0.00015943193798435,3.2395836101865e-05,5.3200000000031e-05,166.43331118532
22.840000000001,5.3600000000031e-05,166.65656699888,0.00015980403100761,3.2767929125121e-05,5.3600000000031e-05,166.65656699928
22.850000000001,5.4000000000031e-05,166.87982281283,0.00016017612403086,3.3140022148377e-05,5.4000000000031e-05,166.87982281323
22.860000000001,5.4400000000031e-05,167.10307862679,0.00016054821705412,3.3512115171633e-05,5.4400000000031e-05,167.10307862718
22.870000000001,5.4800000000031e-05,167.32633444074,0.00016092031007737,3.3884208194889e-05,5.4800000000031e-05,167.32633444114
22.880000000001,5.5200000000031e-05,167.54959025469,0.00016129240310063,3.4256301218145e-05,5.5200000000031e-05,167.54959025509
22.890000000001,5.5600000000031e-05,167.77284606865,0.00016166449612389,3.4628394241401e-05,5.5600000000031e-05,167.77284606904
22.900000000001,5.6000000000031e-05,167.9961018826,0.00016203658914714,3.5000487264657e-05,5.6000000000031e-05,167.996101883
22.910000000001,5.6400000000031e-05,168.21935769655,0.0001624086821704,3.5372580287912e-05,5.6400000000031e-05,168.21935769695
22.920000000001,5.6800000000031e-05,168.44261351051,0.00016278077519365,3.5744673311168e-05,5.6800000000031e-05,168.4426135109
22.930000000001,5.7200000000031e-05,168.66586932446,0.00016315286821691,3.6116766334424e-05,5.7200000000031e-05,168.66586932486
22.940000000001,5.7600000000031e-05,168.88912513841,0.00016352496124017,3.648885935768e-05,5.7600000000031e-05,168.88912513881
22.950000000001,5.8000000000032e-05,169.11238095237,0.00016389705426342,3.6860952380936e-05,5.8000000000032e-05,169.11238095276
22.960000000001,5.8400000000032e-05,169.33563676632,0.00016426914728668,3.7233045404192e-05,5.8400000000032e-05,169.33563676672
22.970000000001,5.8800000000032e-05,169.55889258027,0.00016464124030993,3.7605138427448e-05,5.8800000000032e-05,169.55889258067
22.980000000001,5.9200000000032e-05,169.78214839423,0.00016501333333319,3.7977231450704e-05,5.9200000000032e-05,169.78214839463
22.990000000001,5.9600000000032e-05,170.00540420818,0.00016538542635645,3.8349324473959e-05,5.9600000000032e-05,170.00540420858
23.000000000001,6.0000000000032e-05,170.22866002214,0.0001657575193797,3.8721417497215e-05,6.0000000000032e-05,170.22866002253
23.010000000001,6.0400000000032e-05,170.45191583609,0.00016612961240296,3.9093510520471e-05,6.0400000000032e-05,170.45191583649
23.020000000001,6.0800000000032e-05,170.67517165004,0.00016650170542621,3.9465603543727e-05,6.0800000000032e-05,170.67517165044
23.030000000001,6.1200000000032e-05,170.898427464,0.00016687379844947,3.9837696566983e-05,6.1200000000032e-05,170.89842746439
23.040000000001,6.1600000000032e-05,171.12168327795,0.00016724589147272,4.0209789590239e-05,6.1600000000032e-05,171.12168327835
23.050000000001,6.2000000000032e-05,171.3449390919,0.00016761798449598,4.0581882613495e-05,6.2000000000032e-05,171.3449390923
23.060000000001,6.2400000000032e-05,171.56819490586,0.00016799007751924,4.0953975636751e-05,6.2400000000032e-05,171.56819490625
23.070000000001,6.2800000000032e-05,171.79145071981,0.00016836217054249,4.1326068660006e-05,6.2800000000032e-05,171.79145072021
23.080000000001,6.3200000000032e-05,172.01470653376,0.00016873426356575,4.1698161683262e-05,6.3200000000032e-05,172.01470653416
23.090000000001,6.3600000000032e-05,172.23796234772,0.000169106356589,4.2070254706518e-05,6.3600000000032e-05,172.23796234811
23.100000000001,6.4000000000032e-05,172.46121816167,0.00016947844961226,4.2442347729774e-05,6.4000000000032e-05,172.46121816207
23.110000000001,6.4400000000033e-05,172.68447397562,0.00016985054263552,4.281444075303e-05,6.4400000000033e-05,172.68447397602
23.120000000001,6.4800000000033e-05,172.90772978958,0.00017022263565877,4.3186533776286e-05,6.4800000000033e-05,172.90772978997
23.130000000001,6.5200000000033e-05,173.13098560353,0.00017059472868203,4.3558626799542e-05,6.5200000000033e-05,173.13098560393
23.140000000001,6.5600000000033e-05,173.35424141748,0.00017096682170528,4.3930719822797e-05,6.5600000000033e-05,173.35424141788
23.150000000001,6.6000000000033e-05,173.57749723144,0.00017133891472854,4.4302812846053e-05,6.6000000000033e-05,173.57749723184
23.160000000001,6.6400000000033e-05,173.80075304539,0.0001717110077518,4.4674905869309e-05,6.6400000000033e-05,173.80075304579
23.170000000001,6.6800000000033e-05,174.02400885935,0.00017208310077505,4.5046998892565e-05,6.6800000000033e-05,174.02400885974
23.180000000001,6.7200000000033e-05,174.2472646733,0.00017245519379831,4.5419091915821e-05,6.7200000000033e-05,174.2472646737
23.190000000001,6.7600000000033e-05,174.47052048725,0.00017282728682156,4.5791184939077e-05,6.7600000000033e-05,174.47052048765
23.200000000001,6.8000000000033e-05,174.69377630121,0.00017319937984482,4.6163277962333e-05,6.8000000000033e-05,174.6937763016
23.210000000001,6.8400000000033e-05,174.91703211516,0.00017357147286807,4.6535370985589e-05,6.8400000000033e-05,174.91703211556
23.220000000001,6.8800000000033e-05,175.14028792911,0.00017394356589133,4.6907464008844e-05,6.8800000000033e-05,175.14028792951
23.230000000001,6.9200000000033e-05,175.36354374307,0.00017431565891459,4.72795570321e-05,6.9200000000033e-05,175.36354374346
23.240000000001,6.9600000000033e-05,175.58679955702,0.00017468775193784,4.7651650055356e-05,6.9600000000033e-05,175.58679955742
23.250000000001,7.0000000000033e-05,175.81005537097,0.0001750598449611,4.8023743078612e-05,7.0000000000033e-05,175.81005537137
23.260000000001,7.0400000000033e-05,176.03331118493,0.00017543193798435,4.8395836101868e-05,7.0400000000033e-05,176.03331118532
23.270000000001,7.0800000000034e-05,176.25656699888,0.00017580403100761,4.8767929125124e-05,7.0800000000034e-05,176.25656699928
23.280000000001,7.1200000000034e-05,176.47982281283,0.00017617612403087,4.914002214838e-05,7.1200000000034e-05,176.47982281323
23.290000000001,7.1600000000034e-05,176.70307862679,0.00017654821705412,4.9512115171636e-05,7.1600000000034e-05,176.70307862718
23.300000000001,7.2000000000034e-05,176.92633444074,0.00017692031007738,4.9884208194891e-05,7.2000000000034e-05,176.92633444114
23.310000000001,7.2400000000034e-05,177.14959025469,0.00017729240310063,5.0256301218147e-05,7.2400000000034e-05,177.14959025509
23.320000000001,7.2800000000034e-05,177.37284606865,0.00017766449612389,5.0628394241403e-05,7.2800000000034e-05,177.37284606905
23.330000000001,7.3200000000034e-05,177.5961018826,0.00017803658914714,5.1000487264659e-05,7.3200000000034e-05,177.596101883
23.340000000001,7.3600000000034e-05,177.81935769656,0.0001784086821704,5.1372580287915e-05,7.3600000000034e-05,177.81935769695
23.350000000001,7.4000000000034e-05,178.04261351051,0.00017878077519366,5.1744673311171e-05,7.4000000000034e-05,178.04261351091
23.360000000001,7.4400000000034e-05,178.26586932446,0.00017915286821691,5.2116766334427e-05,7.4400000000034e-05,178.26586932486
23.370000000001,7.4800000000034e-05,178.48912513842,0.00017952496124017,5.2488859357683e-05,7.4800000000034e-05,178.48912513881
23.380000000001,7.5200000000034e-05,178.71238095237,0.00017989705426342,5.2860952380938e-05,7.5200000000034e-05,178.71238095277
23.390000000001,7.5600000000034e-05,178.93563676632,0.00018026914728668,5.3233045404194e-05,7.5600000000034e-05,178.93563676672
23.400000000001,7.6000000000034e-05,179.15889258028,0.00018064124030994,5.360513842745e-05,7.6000000000034e-05,179.15889258067
23.410000000001,7.6400000000034e-05,179.38214839423,0.00018101333333319,5.3977231450706e-05,7.6400000000034e-05,179.38214839463
23.420000000001,7.6800000000034e-05,179.60540420818,0.00018138542635645,5.4349324473962e-05,7.6800000000034e-05,179.60540420858
23.430000000001,7.7200000000035e-05,179.82866002214,0.0001817575193797,5.4721417497218e-05,7.7200000000035e-05,179.82866002253
23.440000000001,7.7600000000035e-05,180.05191583609,0.00018212961240296,5.5093510520474e-05,7.7600000000035e-05,180.05191583649
23.450000000001,7.8000000000035e-05,180.27517165004,0.00018250170542622,5.546560354373e-05,7.8000000000035e-05,180.27517165044
23.460000000001,7.8400000000035e-05,180.498427464,0.00018287379844947,5.5837696566985e-05,7.8400000000035e-05,180.49842746439
23.470000000001,7.8800000000035e-05,180.72168327795,0.00018324589147273,5.6209789590241e-05,7.8800000000035e-05,180.72168327835
23.480000000001,7.9200000000035e-05,180.9449390919,0.00018361798449598,5.6581882613497e-05,7.9200000000035e-05,180.9449390923
23.490000000001,7.9600000000035e-05,181.16819490586,0.00018399007751924,5.6953975636753e-05,7.9600000000035e-05,181.16819490626
23.500000000001,8.0000000000035e-05,181.39145071981,0.00018436217054249,5.7326068660009e-05,8.0000000000035e-05,181.39145072021
23.510000000001,8.0400000000035e-05,181.61470653376,0.00018473426356575,5.7698161683265e-05,8.0400000000035e-05,181.61470653416
23.520000000001,8.0800000000035e-05,181.83796234772,0.00018510635658901,5.8070254706521e-05,8.0800000000035e-05,181.83796234812
23.530000000001,8.1200000000035e-05,182.06121816167,0.00018547844961226,5.8442347729777e-05,8.1200000000035e-05,182.06121816207
23.540000000001,8.1600000000035e-05,182.28447397563,0.00018585054263552,5.8814440753032e-05,8.1600000000035e-05,182.28447397602
23.550000000001,8.2000000000035e-05,182.50772978958,0.00018622263565877,5.9186533776288e-05,8.2000000000035e-05,182.50772978998
23.560000000001,8.2400000000035e-05,182.73098560353,0.00018659472868203,5.9558626799544e-05,8.2400000000035e-05,182.73098560393
23.570000000001,8.2800000000035e-05,182.95424141749,0.00018696682170529,5.99307198228e-05,8.2800000000035e-05,182.95424141788
23.580000000001,8.3200000000035e-05,183.17749723144,0.00018733891472854,6.0302812846056e-05,8.3200000000035e-05,183.17749723184
23.590000000001,8.3600000000036e-05,183.40075304539,0.0001877110077518,6.0674905869312e-05,8.3600000000036e-05,183.40075304579
23.600000000001,8.4000000000036e-05,183.62400885935,0.00018808310077505,6.1046998892568e-05,8.4000000000036e-05,183.62400885974
23.610000000001,8.4400000000036e-05,183.8472646733,0.00018845519379831,6.1419091915823e-05,8.4400000000036e-05,183.8472646737
23.620000000001,8.4800000000036e-05,184.07052048725,0.00018882728682157,6.1791184939079e-05,8.4800000000036e-05,184.07052048765
23.630000000001,8.5200000000036e-05,184.29377630121,0.00018919937984482,6.2163277962335e-05,8.5200000000036e-05,184.2937763016
23.640000000001,8.5600000000036e-05,184.51703211516,0.00018957147286808,6.2535370985591e-05,8.5600000000036e-05,184.51703211556
23.650000000001,8.6000000000036e-05,184.74028792911,0.00018994356589133,6.2907464008847e-05,8.6000000000036e-05,184.74028792951
23.660000000001,8.6400000000036e-05,184.96354374307,0.00019031565891459,6.3279557032103e-05,8.6400000000036e-05,184.96354374347
23.670000000001,8.6800000000036e-05,185.18679955702,0.00019068775193784,6.3651650055359e-05,8.6800000000036e-05,185.18679955742
23.680000000001,8.7200000000036e-05,185.41005537097,0.0001910598449611,6.4023743078615e-05,8.7200000000036e-05,185.41005537137
23.690000000001,8.7600000000036e-05,185.63331118493,0.00019143193798436,6.439583610187e-05,8.7600000000036e-05,185.63331118533
23.700000000001,8.8000000000036e-05,185.85656699888,0.00019180403100761,6.4767929125126e-05,8.8000000000036e-05,185.85656699928
23.710000000001,8.8400000000036e-05,186.07982281284,0.00019217612403087,6.5140022148382e-05,8.8400000000036e-05,186.07982281323
23.720000000001,8.8800000000036e-05,186.30307862679,0.00019254821705412,6.5512115171638e-05,8.8800000000036e-05,186.30307862719
23.730000000001,8.9200000000036e-05,186.52633444074,0.00019292031007738,6.5884208194894e-05,8.9200000000036e-05,186.52633444114
23.740000000001,8.9600000000036e-05,186.7495902547,0.00019329240310064,6.625630121815e-05,8.9600000000036e-05,186.74959025509
23.750000000001,9.0000000000037e-05,186.97284606865,0.00019366449612389,6.6628394241406e-05,9.0000000000037e-05,186.97284606905
23.760000000001,9.0400000000037e-05,187.1961018826,0.00019403658914715,6.7000487264662e-05,9.0400000000037e-05,187.196101883
23.770000000001,9.0800000000037e-05,186.73895902551,0.00019449373200424,6.7457630121755e-05,9.0800000000037e-05,186.73895902626
23.780000000001,9.1200000000037e-05,186.28181616837,0.00019495087486138,6.7914772978898e-05,9.1200000000037e-05,186.28181616911
23.790000000001,9.1600000000037e-05,185.82467331122,0.00019540801771853,6.837191583604e-05,9.1600000000037e-05,185.82467331197
23.800000000001,9.2000000000037e-05,185.36753045408,0.00019586516057567,6.8829058693183e-05,9.2000000000037e-05,185.36753045483
23.810000000001,9.2400000000037e-05,184.91038759694,0.00019632230343281,6.9286201550326e-05,9.2400000000037e-05,184.91038759769
23.820000000001,9.2800000000037e-05,184.4532447398,0.00019677944628995,6.9743344407469e-05,9.2800000000037e-05,184.45324474055
23.830000000001,9.3200000000037e-05,183.99610188265,0.0001972365891471,7.0200487264612e-05,9.3200000000037e-05,183.9961018834
23.840000000001,9.3600000000037e-05,183.53895902551,0.00019769373200424,7.0657630121754e-05,9.3600000000037e-05,183.53895902626
23.850000000001,9.4000000000037e-05,183.08181616837,0.00019815087486138,7.1114772978897e-05,9.4000000000037e-05,183.08181616912
23.860000000001,9.4400000000037e-05,182.62467331122,0.00019860801771853,7.157191583604e-05,9.4400000000037e-05,182.62467331198
23.870000000001,9.4800000000037e-05,182.16753045408,0.00019906516057567,7.2029058693183e-05,9.4800000000037e-05,182.16753045484
23.880000000001,9.5200000000037e-05,181.71038759694,0.00019952230343281,7.2486201550326e-05,9.5200000000037e-05,181.71038759769
23.890000000001,9.5600000000037e-05,181.2532447398,0.00019997944628995,7.2943344407468e-05,9.5600000000037e-05,181.25324474055
23.900000000001,9.6000000000037e-05,180.79610188265,0.0002004365891471,7.3400487264611e-05,9.6000000000037e-05,180.79610188341
23.910000000001,9.6400000000038e-05,180.33895902551,0.00020089373200424,7.3857630121754e-05,9.6400000000038e-05,180.33895902627
23.920000000001,9.6800000000038e-05,179.88181616837,0.00020135087486138,7.4314772978897e-05,9.6800000000038e-05,179.88181616913
23.930000000001,9.7200000000038e-05,179.42467331123,0.00020180801771853,7.4771915836039e-05,9.7200000000038e-05,179.42467331199
23.940000000001,9.7600000000038e-05,178.96753045408,0.00020226516057567,7.5229058693182e-05,9.7600000000038e-05,178.96753045484
23.950000000001,9.8000000000038e-05,178.51038759694,0.00020272230343281,7.5686201550325e-05,9.8000000000038e-05,178.5103875977
23.960000000001,9.8400000000038e-05,178.0532447398,0.00020317944628995,7.6143344407468e-05,9.8400000000038e-05,178.05324474056
23.970000000001,9.8800000000038e-05,177.59610188265,0.0002036365891471,7.6600487264611e-05,9.8800000000038e-05,177.59610188342
23.980000000001,9.9200000000038e-05,177.13895902551,0.00020409373200424,7.7057630121753e-05,9.9200000000038e-05,177.13895902628
23.990000000001,9.9600000000038e-05,176.68181616837,0.00020455087486138,7.7514772978896e-05,9.9600000000038e-05,176.68181616913
24.000000000001,9.9999999999976e-05,176.2246733113,0.00020500801771845,7.7971915835968e-05,9.9999999999976e-05,176.22467331206
24.010000000001,9.9749999999976e-05,174.2246733113,0.00020500801771845,7.7971915835968e-05,9.9749999999976e-05,174.22467331206
24.020000000001,9.9499999999976e-05,172.2246733113,0.00020500801771845,7.7971915835968e-05,9.9499999999976e-05,172.22467331206
24.030000000001,9.9249999999976e-05,170.2246733113,0.00020500801771845,7.7971915835968e-05,9.9249999999976e-05,170.22467331206
24.040000000001,9.8999999999976e-05,168.2246733113,0.00020500801771845,7.7971915835968e-05,9.8999999999976e-05,168.22467331206
24.050000000001,9.8749999999976e-05,166.22467331129,0.00020500801771845,7.7971915835968e-05,9.8749999999976e-05,166.22467331206
24.060000000001,9.8499999999976e-05,164.22467331129,0.00020500801771845,7.7971915835968e-05,9.8499999999976e-05,164.22467331206
24.070000000001,9.8249999999976e-05,162.22467331129,0.00020500801771845,7.7971915835968e-05,9.8249999999976e-05,162.22467331206
24.080000000001,9.7999999999976e-05,160.22467331129,0.00020500801771845,7.7971915835968e-05,9.7999999999976e-05,160.22467331206
24.090000000001,9.7749999999976e-05,158.22467331129,0.00020500801771845,7.7971915835968e-05,9.7749999999976e-05,158.22467331206
24.100000000001,9.7499999999976e-05,156.22467331129,0.00020500801771845,7.7971915835968e-05,9.7499999999976e-05,156.22467331206
24.110000000001,9.7249999999976e-05,154.22467331129,0.00020500801771845,7.7971915835968e-05,9.7249999999976e-05,154.22467331206
24.120000000001,9.6999999999976e-05,152.22467331129,0.00020500801771845,7.7971915835968e-05,9.6999999999976e-05,152.22467331206
24.130000000001,9.6749999999976e-05,150.22467331129,0.00020500801771845,7.7971915835968e-05,9.6749999999976e-05,150.22467331206
24.140000000001,9.6499999999976e-05,148.22467331129,0.00020500801771845,7.7971915835968e-05,9.6499999999976e-05,148.22467331206
24.150000000001,9.6249999999976e-05,146.22467331129,0.00020500801771845,7.7971915835968e-05,9.6249999999976e-05,146.22467331206
24.160000000001,9.5999999999976e-05,144.22467331129,0.00020500801771845,7.7971915835968e-05,9.5999999999976e-05,144.22467331206
24.170000000001,9.5749999999976e-05,142.22467331129,0.00020500801771845,7.7971915835968e-05,9.5749999999976e-05,142.22467331206
24.180000000001,9.5499999999976e-05,140.22467331129,0.00020500801771845,7.7971915835968e-05,9.5499999999976e-05,140.22467331206
24.190000000001,9.5249999999975e-05,138.22467331129,0.00020500801771845,7.7971915835968e-05,9.5249999999975e-05,138.22467331206
24.200000000001,9.4999999999975e-05,136.22467331129,0.00020500801771845,7.7971915835968e-05,9.4999999999975e-05,136.22467331206
24.210000000001,9.4749999999975e-05,134.22467331129,0.00020500801771845,7.7971915835968e-05,9.4749999999975e-05,134.22467331206
24.220000000001,9.4499999999975e-05,132.22467331129,0.00020500801771845,7.7971915835968e-05,9.4499999999975e-05,132.22467331206
24.230000000001,9.4249999999975e-05,130.22467331129,0.00020500801771845,7.7971915835968e-05,9.4249999999975e-05,130.22467331206
24.240000000001,9.3999999999975e-05,128.22467331129,0.00020500801771845,7.7971915835968e-05,9.3999999999975e-05,128.22467331206
24.250000000001,9.3749999999975e-05,126.22467331129,0.00020500801771845,7.7971915835968e-05,9.3749999999975e-05,126.22467331206
24.260000000001,9.3499999999975e-05,124.22467331129,0.00020500801771845,7.7971915835968e-05,9.3499999999975e-05,124.22467331206
24.270000000001,9.3249999999975e-05,122.22467331129,0.00020500801771845,7.7971915835968e-05,9.3249999999975e-05,122.22467331206
24.280000000001,9.2999999999975e-05,120.22467331129,0.00020500801771845,7.7971915835968e-05,9.2999999999975e-05,120.22467331205
24.290000000001,9.2749999999975e-05,118.22467331129,0.00020500801771845,7.7971915835968e-05,9.2749999999975e-05,118.22467331205
24.300000000001,9.2499999999975e-05,116.22467331129,0.00020500801771845,7.7971915835968e-05,9.2499999999975e-05,116.22467331205
24.310000000001,9.2249999999975e-05,114.22467331129,0.00020500801771845,7.7971915835968e-05,9.2249999999975e-05,114.22467331205
24.320000000001,9.1999999999975e-05,112.22467331129,0.00020500801771845,7.7971915835968e-05,9.1999999999975e-05,112.22467331205
24.330000000001,9.1749999999975e-05,110.22467331129,0.00020500801771845,7.7971915835968e-05,9.1749999999975e-05,110.22467331205
24.340000000001,9.1499999999975e-05,108.22467331129,0.00020500801771845,7.7971915835968e-05,9.1499999999975e-05,108.22467331205
24.350000000001,9.1249999999975e-05,106.22467331129,0.00020500801771845,7.7971915835968e-05,9.1249999999975e-05,106.22467331205
24.360000000001,9.0999999999975e-05,104.22467331128,0.00020500801771845,7.7971915835968e-05,9.0999999999975e-05,104.22467331205
24.370000000001,9.0749999999975e-05,102.22467331128,0.00020500801771845,7.7971915835968e-05,9.0749999999975e-05,102.22467331205
24.380000000001,9.0499999999975e-05,100.22467331128,0.00020500801771845,7.7971915835968e-05,9.0499999999975e-05,100.22467331205
24.390000000001,9.0249999999975e-05,98.224673311284,0.00020500801771845,7.7971915835968e-05,9.0249999999975e-05,98.224673312051
24.400000000001,8.9999999999975e-05,96.224673311284,0.00020500801771845,7.7971915835968e-05,8.9999999999975e-05,96.224673312051
24.410000000001,8.9749999999975e-05,94.224673311283,0.00020500801771845,7.7971915835968e-05,8.9749999999975e-05,94.224673312051
24.420000000001,8.9499999999975e-05,92.224673311283,0.00020500801771845,7.7971915835968e-05,8.9499999999975e-05,92.22467331205
24.430000000001,8.9249999999975e-05,90.224673311283,0.00020500801771845,7.7971915835968e-05,8.9249999999975e-05,90.22467331205
24.440000000001,8.8999999999974e-05,88.224673311282,0.00020500801771845,7.7971915835968e-05,8.8999999999974e-05,88.22467331205
24.450000000001,8.8749999999974e-05,86.224673311282,0.00020500801771845,7.7971915835968e-05,8.8749999999974e-05,86.22467331205
24.460000000001,8.8499999999974e-05,84.224673311282,0.00020500801771845,7.7971915835968e-05,8.8499999999974e-05,84.224673312049
24.470000000001,8.8249999999974e-05,82.224673311281,0.00020500801771845,7.7971915835968e-05,8.8249999999974e-05,82.224673312049
24.480000000001,8.7999999999974e-05,80.224673311281,0.00020500801771845,7.7971915835968e-05,8.7999999999974e-05,80.224673312049
24.490000000001,8.7749999999974e-05,78.224673311281,0.00020500801771845,7.7971915835968e-05,8.7749999999974e-05,78.224673312048
24.500000000001,8.7499999999974e-05,76.224673311281,0.00020500801771845,7.7971915835968e-05,8.7499999999974e-05,76.224673312048
24.510000000001,8.7249999999974e-05,74.22467331128,0.00020500801771845,7.7971915835968e-05,8.7249999999974e-05,74.224673312048
24.520000000001,8.6999999999974e-05,72.22467331128,0.00020500801771845,7.7971915835968e-05,8.6999999999974e-05,72.224673312047
24.530000000001,8.6749999999974e-05,70.22467331128,0.00020500801771845,7.7971915835968e-05,8.6749999999974e-05,70.224673312047
24.540000000001,8.6499999999974e-05,68.224673311279,0.00020500801771845,7.7971915835968e-05,8.6499999999974e-05,68.224673312047
24.550000000001,8.6249999999974e-05,66.224673311279,0.00020500801771845,7.7971915835968e-05,8.6249999999974e-05,66.224673312046
24.560000000001,8.5999999999974e-05,64.224673311279,0.00020500801771845,7.7971915835968e-05,8.5999999999974e-05,64.224673312046
24.570000000001,8.5749999999974e-05,62.224673311278,0.00020500801771845,7.7971915835968e-05,8.5749999999974e-05,62.224673312046
24.580000000001,8.5499999999974e-05,60.224673311278,0.00020500801771845,7.7971915835968e-05,8.5499999999974e-05,60.224673312045
24.590000000001,8.5249999999974e-05,58.224673311278,0.00020500801771845,7.7971915835968e-05,8.5249999999974e-05,58.224673312045
24.600000000001,8.4999999999974e-05,56.224673311277,0.00020500801771845,7.7971915835968e-05,8.4999999999974e-05,56.224673312045
24.610000000001,8.4749999999974e-05,54.224673311277,0.00020500801771845,7.7971915835968e-05,8.4749999999974e-05,54.224673312045
24.620000000001,8.4499999999974e-05,52.224673311277,0.00020500801771845,7.7971915835968e-05,8.4499999999974e-05,52.224673312044
24.630000000001,8.4249999999974e-05,50.224673311276,0.00020500801771845,7.7971915835968e-05,8.4249999999974e-05,50.224673312044
24.640000000001,8.3999999999974e-05,48.224673311276,0.00020500801771845,7.7971915835968e-05,8.3999999999974e-05,48.224673312044
24.650000000001,8.3749999999974e-05,46.224673311276,0.00020500801771845,7.7971915835968e-05,8.3749999999974e-05,46.224673312043
24.660000000001,8.3499999999974e-05,44.224673311276,0.00020500801771845,7.7971915835968e-05,8.3499999999974e-05,44.224673312043
24.670000000001,8.3249999999974e-05,42.224673311275,0.00020500801771845,7.7971915835968e-05,8.3249999999974e-05,42.224673312043
24.680000000001,8.2999999999974e-05,40.224673311275,0.00020500801771845,7.7971915835968e-05,8.2999999999974e-05,40.224673312042
24.690000000001,8.2749999999973e-05,38.224673311275,0.00020500801771845,7.7971915835968e-05,8.2749999999973e-05,38.224673312042
24.700000000001,8.2499999999973e-05,36.224673311274,0.00020500801771845,7.7971915835968e-05,8.2499999999973e-05,36.224673312042
24.710000000001,8.2249999999973e-05,34.224673311274,0.00020500801771845,7.7971915835968e-05,8.2249999999973e-05,34.224673312041
24.720000000001,8.1999999999973e-05,32.224673311274,0.00020500801771845,7.7971915835968e-05,8.1999999999973e-05,32.224673312041
24.730000000001,8.1749999999973e-05,30.224673311273,0.00020500801771845,7.7971915835968e-05,8.1749999999973e-05,30.224673312041
24.740000000001,8.1499999999973e-05,28.224673311273,0.00020500801771845,7.7971915835968e-05,8.1499999999973e-05,28.22467331204
24.750000000001,8.1249999999973e-05,26.224673311273,0.00020500801771845,7.7971915835968e-05,8.1249999999973e-05,26.22467331204
24.760000000001,8.0999999999973e-05,24.224673311273,0.00020500801771845,7.7971915835968e-05,8.0999999999973e-05,24.22467331204
24.770000000001,8.0749999999973e-05,22.224673311272,0.00020500801771845,7.7971915835968e-05,8.0749999999973e-05,22.224673312039
24.780000000001,8.0499999999973e-05,20.224673311272,0.00020500801771845,7.7971915835968e-05,8.0499999999973e-05,20.224673312039
24.790000000001,8.0249999999973e-05,18.224673311271,0.00020500801771845,7.7971915835968e-05,8.0249999999973e-05,18.224673312039
24.800000000001,7.9999999999973e-05,16.224673311271,0.00020500801771845,7.7971915835968e-05,7.9999999999973e-05,16.224673312039
24.810000000001,7.9749999999973e-05,14.224673311271,0.00020500801771845,7.7971915835968e-05,7.9749999999973e-05,14.224673312038
24.820000000001,7.9499999999973e-05,12.224673311271,0.00020500801771845,7.7971915835968e-05,7.9499999999973e-05,12.224673312038
24.830000000001,7.9249999999973e-05,10.22467331127,0.00020500801771845,7.7971915835968e-05,7.9249999999973e-05,10.224673312038
24.840000000001,7.8999999999973e-05,8.22467331127,0.00020500801771845,7.7971915835968e-05,7.8999999999973e-05,8.2246733120374
24.850000000001,7.8749999999973e-05,6.2246733112696,0.00020500801771845,7.7971915835968e-05,7.8749999999973e-05,6.224673312037
24.860000000001,7.8499999999973e-05,4.2246733112693,0.00020500801771845,7.7971915835968e-05,7.8499999999973e-05,4.2246733120367
24.870000000001,7.8249999999973e-05,2.2246733112691,0.00020500801771845,7.7971915835968e-05,7.8249999999973e-05,2.2246733120365
24.880000000001,7.7999999999973e-05,0.2246733112687,0.00020500801771845,7.7971915835968e-05,7.7999999999973e-05,0.22467331203611
24.890000000001,7.7749999999973e-05,1.7753266887316,0.00020500801771845,7.7971915835968e-05,7.7749999999973e-05,-1.7753266879642
24.900000000001,7.7499999999973e-05,3.775326688732,0.00020500801771845,7.7971915835968e-05,7.7499999999973e-05,-3.7753266879646
24.910000000001,7.7249999999973e-05,5.7753266887322,0.00020500801771845,7.7971915835968e-05,7.7249999999973e-05,-5.7753266879648
24.920000000001,7.6999999999973e-05,7.7753266887326,0.00020500801771845,7.7971915835968e-05,7.6999999999973e-05,-7.7753266879652
24.930000000001,7.6749999999973e-05,9.7753266887329,0.00020500801771845,7.7971915835968e-05,7.6749999999973e-05,-9.7753266879655
24.940000000001,7.6499999999973e-05,11.775326688733,0.00020500801771845,7.7971915835968e-05,7.6499999999973e-05,-11.775326687966
24.950000000001,7.6249999999972e-05,13.775326688733,0.00020500801771845,7.7971915835968e-05,7.6249999999972e-05,-13.775326687966
24.960000000001,7.5999999999972e-05,15.775326688734,0.00020500801771845,7.7971915835968e-05,7.5999999999972e-05,-15.775326687966
24.970000000001,7.5749999999972e-05,17.775326688734,0.00020500801771845,7.7971915835968e-05,7.5749999999972e-05,-17.775326687967
24.980000000001,7.5499999999972e-05,19.775326688734,0.00020500801771845,7.7971915835968e-05,7.5499999999972e-05,-19.775326687967
24.990000000001,7.5249999999972e-05,21.775326688735,0.00020500801771845,7.7971915835968e-05,7.5249999999972e-05,-21.775326687967
25.000000000001,7.4999999999972e-05,23.775326688735,0.00020500801771845,7.7971915835968e-05,7.4999999999972e-05,-23.775326687968
25.010000000001,7.4749999999972e-05,25.775326688735,0.00020500801771845,7.7971915835968e-05,7.4749999999972e-05,-25.775326687968
25.020000000001,7.4499999999972e-05,27.775326688736,0.00020500801771845,7.7971915835968e-05,7.4499999999972e-05,-27.775326687968
25.030000000001,7.4249999999972e-05,29.775326688736,0.00020500801771845,7.7971915835968e-05,7.4249999999972e-05,-29.775326687969
25.040000000001,7.3999999999972e-05,31.775326688736,0.00020500801771845,7.7971915835968e-05,7.3999999999972e-05,-31.775326687969
25.050000000001,7.3749999999972e-05,33.775326688737,0.00020500801771845,7.7971915835968e-05,7.3749999999972e-05,-33.775326687969
25.060000000001,7.3499999999972e-05,35.775326688737,0.00020500801771845,7.7971915835968e-05,7.3499999999972e-05,-35.77532668797
25.070000000001,7.3249999999972e-05,37.775326688737,0.00020500801771845,7.7971915835968e-05,7.3249999999972e-05,-37.77532668797
25.080000000001,7.2999999999972e-05,39.775326688738,0.00020500801771845,7.7971915835968e-05,7.2999999999972e-05,-39.77532668797
25.090000000001,7.2749999999972e-05,41.775326688738,0.00020500801771845,7.7971915835968e-05,7.2749999999972e-05,-41.775326687971
25.100000000001,7.2499999999972e-05,43.775326688738,0.00020500801771845,7.7971915835968e-05,7.2499999999972e-05,-43.775326687971
25.110000000001,7.2249999999972e-05,45.775326688739,0.00020500801771845,7.7971915835968e-05,7.2249999999972e-05,-45.775326687971
25.120000000001,7.1999999999972e-05,47.775326688739,0.00020500801771845,7.7971915835968e-05,7.1999999999972e-05,-47.775326687971
25.130000000001,7.1749999999972e-05,49.775326688739,0.00020500801771845,7.7971915835968e-05,7.1749999999972e-05,-49.775326687972
25.140000000001,7.1499999999972e-05,51.775326688739,0.00020500801771845,7.7971915835968e-05,7.1499999999972e-05,-51.775326687972
25.150000000001,7.1249999999972e-05,53.77532668874,0.00020500801771845,7.7971915835968e-05,7.1249999999972e-05,-53.775326687972
25.160000000001,7.0999999999972e-05,55.77532668874,0.00020500801771845,7.7971915835968e-05,7.0999999999972e-05,-55.775326687973
25.170000000001,7.0749999999972e-05,57.77532668874,0.00020500801771845,7.7971915835968e-05,7.0749999999972e-05,-57.775326687973
25.180000000001,7.0499999999972e-05,59.775326688741,0.00020500801771845,7.7971915835968e-05,7.0499999999972e-05,-59.775326687973
25.190000000001,7.0249999999972e-05,61.775326688741,0.00020500801771845,7.7971915835968e-05,7.0249999999972e-05,-61.775326687974
25.200000000001,6.9999999999972e-05,63.775326688741,0.00020500801771845,7.7971915835968e-05,6.9999999999972e-05,-63.775326687974
25.210000000001,6.9749999999971e-05,65.775326688742,0.00020500801771845,7.7971915835968e-05,6.9749999999971e-05,-65.775326687974
25.220000000001,6.9499999999971e-05,67.775326688742,0.00020500801771845,7.7971915835968e-05,6.9499999999971e-05,-67.775326687975
25.230000000001,6.9249999999971e-05,69.775326688742,0.00020500801771845,7.7971915835968e-05,6.9249999999971e-05,-69.775326687975
25.240000000001,6.8999999999971e-05,71.775326688743,0.00020500801771845,7.7971915835968e-05,6.8999999999971e-05,-71.775326687975
25.250000000001,6.8749999999971e-05,73.775326688743,0.00020500801771845,7.7971915835968e-05,6.8749999999971e-05,-73.775326687976
25.260000000001,6.8499999999971e-05,75.775326688743,0.00020500801771845,7.7971915835968e-05,6.8499999999971e-05,-75.775326687976
25.270000000001,6.8249999999971e-05,77.775326688744,0.00020500801771845,7.7971915835968e-05,6.8249999999971e-05,-77.775326687976
25.280000000001,6.7999999999971e-05,79.775326688744,0.00020500801771845,7.7971915835968e-05,6.7999999999971e-05,-79.775326687977
25.290000000001,6.7749999999971e-05,81.775326688744,0.00020500801771845,7.7971915835968e-05,6.7749999999971e-05,-81.775326687977
25.300000000001,6.7499999999971e-05,83.775326688744,0.00020500801771845,7.7971915835968e-05,6.7499999999971e-05,-83.775326687977
25.310000000001,6.7249999999971e-05,85.775326688745,0.00020500801771845,7.7971915835968e-05,6.7249999999971e-05,-85.775326687977
25.320000000001,6.6999999999971e-05,87.775326688745,0.00020500801771845,7.7971915835968e-05,6.6999999999971e-05,-87.775326687978
25.330000000001,6.6749999999971e-05,89.775326688745,0.00020500801771845,7.7971915835968e-05,6.6749999999971e-05,-89.775326687978
25.340000000001,6.6499999999971e-05,91.775326688746,0.00020500801771845,7.7971915835968e-05,6.6499999999971e-05,-91.775326687978
25.350000000001,6.6249999999971e-05,93.775326688746,0.00020500801771845,7.7971915835968e-05,6.6249999999971e-05,-93.775326687979
25.360000000001,6.5999999999971e-05,95.775326688746,0.00020500801771845,7.7971915835968e-05,6.5999999999971e-05,-95.775326687979
25.370000000001,6.5749999999971e-05,97.775326688747,0.00020500801771845,7.7971915835968e-05,6.5749999999971e-05,-97.775326687979
25.380000000001,6.5499999999971e-05,99.775326688747,0.00020500801771845,7.7971915835968e-05,6.5499999999971e-05,-99.77532668798
25.390000000001,6.5249999999971e-05,101.77532668875,0.00020500801771845,7.7971915835968e-05,6.5249999999971e-05,-101.77532668798
25.400000000001,6.4999999999971e-05,103.77532668875,0.00020500801771845,7.7971915835968e-05,6.4999999999971e-05,-103.77532668798
25.410000000001,6.4749999999971e-05,105.77532668875,0.00020500801771845,7.7971915835968e-05,6.4749999999971e-05,-105.77532668798
25.420000000001,6.4499999999971e-05,107.77532668875,0.00020500801771845,7.7971915835968e-05,6.4499999999971e-05,-107.77532668798
25.430000000001,6.4249999999971e-05,109.77532668875,0.00020500801771845,7.7971915835968e-05,6.4249999999971e-05,-109.77532668798
25.440000000001,6.3999999999971e-05,111.77532668875,0.00020500801771845,7.7971915835968e-05,6.3999999999971e-05,-111.77532668798
25.450000000001,6.3749999999971e-05,113.77532668875,0.00020500801771845,7.7971915835968e-05,6.3749999999971e-05,-113.77532668798
25.460000000001,6.349999999997e-05,115.77532668875,0.00020500801771845,7.7971915835968e-05,6.349999999997e-05,-115.77532668798
25.470000000001,6.324999999997e-05,117.77532668875,0.00020500801771845,7.7971915835968e-05,6.324999999997e-05,-117.77532668798
25.480000000001,6.299999999997e-05,119.77532668875,0.00020500801771845,7.7971915835968e-05,6.299999999997e-05,-119.77532668798
25.490000000001,6.274999999997e-05,121.77532668875,0.00020500801771845,7.7971915835968e-05,6.274999999997e-05,-121.77532668798
25.500000000001,6.249999999997e-05,123.77532668875,0.00020500801771845,7.7971915835968e-05,6.249999999997e-05,-123.77532668798
25.510000000001,6.224999999997e-05,125.77532668875,0.00020500801771845,7.7971915835968e-05,6.224999999997e-05,-125.77532668798
25.520000000001,6.199999999997e-05,127.77532668875,0.00020500801771845,7.7971915835968e-05,6.199999999997e-05,-127.77532668798
25.530000000001,6.174999999997e-05,129.77532668875,0.00020500801771845,7.7971915835968e-05,6.174999999997e-05,-129.77532668798
25.540000000001,6.149999999997e-05,131.77532668875,0.00020500801771845,7.7971915835968e-05,6.149999999997e-05,-131.77532668798
25.550000000001,6.124999999997e-05,133.77532668875,0.00020500801771845,7.7971915835968e-05,6.124999999997e-05,-133.77532668798
25.560000000001,6.099999999997e-05,135.59105204876,0.0002050310520483,7.7948881506121e-05,6.099999999997e-05,-135.59105204921
25.570000000001,6.074999999997e-05,135.73058693249,0.00020526361018786,7.7716323366566e-05,6.074999999997e-05,-135.73058693277
25.580000000001,6.049999999997e-05,135.87012181621,0.00020549616832739,7.7483765227031e-05,6.049999999997e-05,-135.87012181649
25.590000000001,6.024999999997e-05,136.00965669993,0.00020572872646693,7.7251207087496e-05,6.024999999997e-05,-136.00965670021
25.600000000001,5.999999999997e-05,136.14919158365,0.00020596128460646,7.7018648947961e-05,5.999999999997e-05,-136.14919158393
25.610000000001,5.974999999997e-05,136.28872646737,0.000206193842746,7.6786090808426e-05,5.974999999997e-05,-136.28872646765
25.620000000001,5.949999999997e-05,136.42826135109,0.00020642640088553,7.6553532668891e-05,5.949999999997e-05,-136.42826135137
25.630000000001,5.924999999997e-05,136.56779623481,0.00020665895902507,7.6320974529356e-05,5.924999999997e-05,-136.56779623509
25.640000000001,5.899999999997e-05,136.70733111854,0.0002068915171646,7.6088416389821e-05,5.899999999997e-05,-136.70733111881
25.650000000001,5.874999999997e-05,136.84686600226,0.00020712407530414,7.5855858250286e-05,5.874999999997e-05,-136.84686600253
25.660000000001,5.849999999997e-05,136.98640088598,0.00020735663344367,7.5623300110752e-05,5.849999999997e-05,-136.98640088625
25.670000000001,5.824999999997e-05,137.1259357697,0.00020758919158321,7.5390741971217e-05,5.824999999997e-05,-137.12593576998
25.680000000001,5.799999999997e-05,137.26547065342,0.00020782174972274,7.5158183831682e-05,5.799999999997e-05,-137.2654706537
25.690000000001,5.774999999997e-05,137.40500553714,0.00020805430786228,7.4925625692147e-05,5.774999999997e-05,-137.40500553742
25.700000000001,5.749999999997e-05,137.54454042086,0.00020828686600181,7.4693067552612e-05,5.749999999997e-05,-137.54454042114
25.710000000001,5.724999999997e-05,137.68407530458,0.00020851942414135,7.4460509413077e-05,5.724999999997e-05,-137.68407530486
25.720000000001,5.6999999999969e-05,137.8236101883,0.00020875198228088,7.4227951273542e-05,5.6999999999969e-05,-137.82361018858
25.730000000001,5.6749999999969e-05,137.96314507202,0.00020898454042042,7.3995393134007e-05,5.6749999999969e-05,-137.9631450723
25.740000000001,5.6499999999969e-05,138.10267995575,0.00020921709855995,7.3762834994472e-05,5.6499999999969e-05,-138.10267995602
25.750000000001,5.6249999999969e-05,138.24221483947,0.00020944965669949,7.3530276854937e-05,5.6249999999969e-05,-138.24221483974
25.760000000001,5.5999999999969e-05,138.38174972319,0.00020968221483902,7.3297718715402e-05,5.5999999999969e-05,-138.38174972346
25.770000000001,5.5749999999969e-05,138.52128460691,0.00020991477297855,7.3065160575867e-05,5.5749999999969e-05,-138.52128460718
25.780000000001,5.5499999999969e-05,138.66081949063,0.00021014733111809,7.2832602436332e-05,5.5499999999969e-05,-138.66081949091
25.790000000001,5.5249999999969e-05,138.80035437435,0.00021037988925762,7.2600044296798e-05,5.5249999999969e-05,-138.80035437463
25.800000000001,5.4999999999969e-05,138.93988925807,0.00021061244739716,7.2367486157263e-05,5.4999999999969e-05,-138.93988925835
25.810000000001,5.4749999999969e-05,139.07942414179,0.00021084500553669,7.2134928017728e-05,5.4749999999969e-05,-139.07942414207
25.820000000001,5.4499999999969e-05,139.21895902551,0.00021107756367623,7.1902369878193e-05,5.4499999999969e-05,-139.21895902579
25.830000000001,5.4249999999969e-05,139.35849390923,0.00021131012181576,7.1669811738658e-05,5.4249999999969e-05,-139.35849390951
25.840000000001,5.3999999999969e-05,139.49802879296,0.0002115426799553,7.1437253599123e-05,5.3999999999969e-05,-139.49802879323
25.850000000001,5.3749999999969e-05,139.63756367668,0.00021177523809483,7.1204695459588e-05,5.3749999999969e-05,-139.63756367695
25.860000000001,5.3499999999969e-05,139.7770985604,0.00021200779623437,7.0972137320053e-05,5.3499999999969e-05,-139.77709856067
25.870000000001,5.3249999999969e-05,139.91663344412,0.0002122403543739,7.0739579180518e-05,5.3249999999969e-05,-139.91663344439
25.880000000001,5.2999999999969e-05,140.05616832784,0.00021247291251344,7.0507021040983e-05,5.2999999999969e-05,-140.05616832812
25.890000000001,5.2749999999969e-05,140.19570321156,0.00021270547065297,7.0274462901448e-05,5.2749999999969e-05,-140.19570321184
25.900000000001,5.2499999999969e-05,140.33523809528,0.00021293802879251,7.0041904761913e-05,5.2499999999969e-05,-140.33523809556
25.910000000001,5.2249999999969e-05,140.474772979,0.00021317058693204,6.9809346622379e-05,5.2249999999969e-05,-140.47477297928
25.920000000001,5.1999999999969e-05,140.61430786272,0.00021340314507158,6.9576788482844e-05,5.1999999999969e-05,-140.614307863
25.930000000001,5.1749999999969e-05,140.75384274644,0.00021363570321111,6.9344230343309e-05,5.1749999999969e-05,-140.75384274672
25.940000000001,5.1499999999969e-05,140.89337763016,0.00021386826135065,6.9111672203774e-05,5.1499999999969e-05,-140.89337763044
25.950000000001,5.1249999999969e-05,141.03291251389,0.00021410081949018,6.8879114064239e-05,5.1249999999969e-05,-141.03291251416
25.960000000001,5.0999999999969e-05,141.17244739761,0.00021433337762972,6.8646555924704e-05,5.0999999999969e-05,-141.17244739788
25.970000000001,5.0749999999968e-05,141.31198228133,0.00021456593576925,6.8413997785169e-05,5.0749999999969e-05,-141.3119822816
25.980000000001,5.0499999999968e-05,141.45151716505,0.00021479849390879,6.8181439645634e-05,5.0499999999968e-05,-141.45151716532
25.990000000001,5.0249999999968e-05,141.59105204877,0.00021503105204832,6.7948881506099e-05,5.0249999999968e-05,-141.59105204905
26.000000000001,4.9999999999968e-05,141.73058693249,0.00021526361018786,6.7716323366564e-05,4.9999999999968e-05,-141.73058693277
26.010000000001,4.9749999999968e-05,141.87012181621,0.00021549616832739,6.7483765227029e-05,4.9749999999968e-05,-141.87012181649
26.020000000001,4.9499999999968e-05,142.00965669993,0.00021572872646693,6.7251207087494e-05,4.9499999999968e-05,-142.00965670021
26.030000000001,4.9249999999968e-05,142.14919158365,0.00021596128460646,6.7018648947959e-05,4.9249999999968e-05,-142.14919158393
26.040000000001,4.8999999999968e-05,142.28872646737,0.000216193842746,6.6786090808425e-05,4.8999999999968e-05,-142.28872646765
26.050000000001,4.8749999999968e-05,142.42826135109,0.00021642640088553,6.655353266889e-05,4.8749999999968e-05,-142.42826135137
26.060000000001,4.8499999999968e-05,142.56779623482,0.00021665895902507,6.6320974529355e-05,4.8499999999968e-05,-142.56779623509
26.070000000001,4.8249999999968e-05,142.70733111854,0.0002168915171646,6.608841638982e-05,4.8249999999968e-05,-142.70733111881
26.080000000001,4.7999999999968e-05,142.84686600226,0.00021712407530414,6.5855858250285e-05,4.7999999999968e-05,-142.84686600253
26.090000000001,4.7749999999968e-05,142.98640088598,0.00021735663344367,6.562330011075e-05,4.7749999999968e-05,-142.98640088626
26.100000000001,4.7499999999968e-05,143.1259357697,0.00021758919158321,6.5390741971215e-05,4.7499999999968e-05,-143.12593576998
26.110000000001,4.7249999999968e-05,143.26547065342,0.00021782174972274,6.515818383168e-05,4.7249999999968e-05,-143.2654706537
26.120000000001,4.6999999999968e-05,143.40500553714,0.00021805430786228,6.4925625692145e-05,4.6999999999968e-05,-143.40500553742
26.130000000001,4.6749999999968e-05,143.54454042086,0.00021828686600181,6.469306755261e-05,4.6749999999968e-05,-143.54454042114
26.140000000001,4.6499999999968e-05,143.68407530458,0.00021851942414135,6.4460509413075e-05,4.6499999999968e-05,-143.68407530486
26.150000000001,4.6249999999968e-05,143.8236101883,0.00021875198228088,6.422795127354e-05,4.6249999999968e-05,-143.82361018858
26.160000000001,4.5999999999968e-05,143.96314507203,0.00021898454042042,6.3995393134005e-05,4.5999999999968e-05,-143.9631450723
26.170000000001,4.5749999999968e-05,144.10267995575,0.00021921709855995,6.3762834994471e-05,4.5749999999968e-05,-144.10267995602
26.180000000001,4.5499999999968e-05,144.24221483947,0.00021944965669949,6.3530276854936e-05,4.5499999999968e-05,-144.24221483974
26.190000000001,4.5249999999968e-05,144.38174972319,0.00021968221483902,6.3297718715401e-05,4.5249999999968e-05,-144.38174972346
26.200000000001,4.4999999999968e-05,144.52128460691,0.00021991477297856,6.3065160575866e-05,4.4999999999968e-05,-144.52128460719
26.210000000001,4.4749999999968e-05,144.66081949063,0.00022014733111809,6.2832602436331e-05,4.4749999999968e-05,-144.66081949091
26.220000000001,4.4499999999968e-05,144.80035437435,0.00022037988925763,6.2600044296796e-05,4.4499999999968e-05,-144.80035437463
26.230000000001,4.4249999999967e-05,144.93988925807,0.00022061244739716,6.2367486157261e-05,4.4249999999967e-05,-144.93988925835
26.240000000001,4.3999999999967e-05,145.07942414179,0.0002208450055367,6.2134928017726e-05,4.3999999999967e-05,-145.07942414207
26.250000000001,4.3749999999967e-05,145.21895902551,0.00022107756367623,6.1902369878191e-05,4.3749999999967e-05,-145.21895902579
26.260000000001,4.3499999999967e-05,145.35849390923,0.00022131012181577,6.1669811738656e-05,4.3499999999967e-05,-145.35849390951
26.270000000001,4.3249999999967e-05,145.49802879296,0.0002215426799553,6.1437253599121e-05,4.3249999999967e-05,-145.49802879323
26.280000000001,4.2999999999967e-05,145.63756367668,0.00022177523809484,6.1204695459586e-05,4.2999999999967e-05,-145.63756367695
26.290000000001,4.2749999999967e-05,145.7770985604,0.00022200779623437,6.0972137320052e-05,4.2749999999967e-05,-145.77709856067
26.300000000001,4.2499999999967e-05,145.91663344412,0.00022224035437391,6.0739579180517e-05,4.2499999999967e-05,-145.9166334444
26.310000000001,4.2249999999967e-05,146.05616832784,0.00022247291251344,6.0507021040982e-05,4.2249999999967e-05,-146.05616832812
26.320000000001,4.1999999999967e-05,146.19570321156,0.00022270547065298,6.0274462901447e-05,4.1999999999967e-05,-146.19570321184
26.330000000001,4.1749999999967e-05,146.33523809528,0.00022293802879251,6.0041904761912e-05,4.1749999999967e-05,-146.33523809556
26.340000000001,4.1499999999967e-05,146.474772979,0.00022317058693205,5.9809346622377e-05,4.1499999999967e-05,-146.47477297928
26.350000000001,4.1249999999967e-05,146.61430786272,0.00022340314507158,5.9576788482842e-05,4.1249999999967e-05,-146.614307863
26.360000000001,4.0999999999967e-05,146.75384274644,0.00022363570321112,5.9344230343307e-05,4.0999999999967e-05,-146.75384274672
26.370000000001,4.0749999999967e-05,146.89337763017,0.00022386826135065,5.9111672203772e-05,4.0749999999967e-05,-146.89337763044
26.380000000001,4.0499999999967e-05,147.03291251389,0.00022410081949018,5.8879114064237e-05,4.0499999999967e-05,-147.03291251416
26.390000000001,4.0249999999967e-05,147.17244739761,0.00022433337762972,5.8646555924702e-05,4.0249999999967e-05,-147.17244739788
26.400000000001,3.9999999999967e-05,147.31198228133,0.00022456593576925,5.8413997785167e-05,3.9999999999967e-05,-147.3119822816
26.410000000001,3.9749999999967e-05,147.45151716505,0.00022479849390879,5.8181439645632e-05,3.9749999999967e-05,-147.45151716533
26.420000000001,3.9499999999967e-05,147.59105204877,0.00022503105204832,5.7948881506098e-05,3.9499999999967e-05,-147.59105204905
26.430000000001,3.9249999999967e-05,147.73058693249,0.00022526361018786,5.7716323366563e-05,3.9249999999967e-05,-147.73058693277
26.440000000001,3.8999999999967e-05,147.87012181621,0.00022549616832739,5.7483765227028e-05,3.8999999999967e-05,-147.87012181649
26.450000000001,3.8749999999967e-05,148.00965669993,0.00022572872646693,5.7251207087493e-05,3.8749999999967e-05,-148.00965670021
26.460000000001,3.8499999999967e-05,148.14919158365,0.00022596128460646,5.7018648947958e-05,3.8499999999967e-05,-148.14919158393
26.470000000001,3.8249999999967e-05,148.28872646737,0.000226193842746,5.6786090808423e-05,3.8249999999967e-05,-148.28872646765
26.480000000001,3.7999999999967e-05,148.4282613511,0.00022642640088553,5.6553532668888e-05,3.7999999999967e-05,-148.42826135137
26.490000000001,3.7749999999966e-05,148.56779623482,0.00022665895902507,5.6320974529353e-05,3.7749999999966e-05,-148.56779623509
26.500000000001,3.7499999999966e-05,148.70733111854,0.0002268915171646,5.6088416389818e-05,3.7499999999966e-05,-148.70733111881
26.510000000001,3.7249999999966e-05,148.84686600226,0.00022712407530414,5.5855858250283e-05,3.7249999999966e-05,-148.84686600254
26.520000000001,3.6999999999966e-05,148.98640088598,0.00022735663344367,5.5623300110748e-05,3.6999999999966e-05,-148.98640088626
26.530000000001,3.6749999999966e-05,149.1259357697,0.00022758919158321,5.5390741971213e-05,3.6749999999966e-05,-149.12593576998
26.540000000001,3.6499999999966e-05,149.26547065342,0.00022782174972274,5.5158183831679e-05,3.6499999999966e-05,-149.2654706537
26.550000000001,3.6249999999966e-05,149.40500553714,0.00022805430786228,5.4925625692144e-05,3.6249999999966e-05,-149.40500553742
26.560000000001,3.5999999999966e-05,149.54454042086,0.00022828686600181,5.4693067552609e-05,3.5999999999966e-05,-149.54454042114
26.570000000001,3.5749999999966e-05,149.68407530458,0.00022851942414135,5.4460509413074e-05,3.5749999999966e-05,-149.68407530486
26.580000000001,3.5499999999966e-05,149.82361018831,0.00022875198228088,5.4227951273539e-05,3.5499999999966e-05,-149.82361018858
26.590000000001,3.5249999999966e-05,149.96314507203,0.00022898454042042,5.3995393134004e-05,3.5249999999966e-05,-149.9631450723
26.600000000001,3.4999999999966e-05,150.10267995575,0.00022921709855995,5.3762834994469e-05,3.4999999999966e-05,-150.10267995602
26.610000000001,3.4749999999966e-05,150.24221483947,0.00022944965669949,5.3530276854934e-05,3.4749999999966e-05,-150.24221483974
26.620000000001,3.4499999999966e-05,150.38174972319,0.00022968221483902,5.3297718715399e-05,3.4499999999966e-05,-150.38174972347
26.630000000001,3.4249999999966e-05,150.52128460691,0.00022991477297856,5.3065160575864e-05,3.4249999999966e-05,-150.52128460719
26.640000000001,3.3999999999966e-05,150.66081949063,0.00023014733111809,5.2832602436329e-05,3.3999999999966e-05,-150.66081949091
26.650000000001,3.3749999999966e-05,150.80035437435,0.00023037988925763,5.2600044296794e-05,3.3749999999966e-05,-150.80035437463
26.660000000001,3.3499999999966e-05,150.93988925807,0.00023061244739716,5.236748615726e-05,3.3499999999966e-05,-150.93988925835
26.670000000001,3.3249999999966e-05,151.07942414179,0.0002308450055367,5.2134928017725e-05,3.3249999999966e-05,-151.07942414207
26.680000000001,3.2999999999966e-05,151.21895902551,0.00023107756367623,5.190236987819e-05,3.2999999999966e-05,-151.21895902579
26.690000000001,3.2749999999966e-05,151.35849390924,0.00023131012181577,5.1669811738655e-05,3.2749999999966e-05,-151.35849390951
26.700000000001,3.2499999999966e-05,151.49802879296,0.0002315426799553,5.143725359912e-05,3.2499999999966e-05,-151.49802879323
26.710000000001,3.2249999999966e-05,151.63756367668,0.00023177523809484,5.1204695459585e-05,3.2249999999966e-05,-151.63756367695
26.720000000001,3.1999999999966e-05,151.7770985604,0.00023200779623437,5.097213732005e-05,3.1999999999966e-05,-151.77709856068
26.730000000001,3.1749999999966e-05,151.91663344412,0.00023224035437391,5.0739579180515e-05,3.1749999999966e-05,-151.9166334444
26.740000000001,3.1499999999965e-05,152.05616832784,0.00023247291251344,5.050702104098e-05,3.1499999999965e-05,-152.05616832812
26.750000000001,3.1249999999965e-05,152.19570321156,0.00023270547065298,5.0274462901445e-05,3.1249999999965e-05,-152.19570321184
26.760000000001,3.0999999999965e-05,152.33523809528,0.00023293802879251,5.004190476191e-05,3.0999999999965e-05,-152.33523809556
26.770000000001,3.0749999999965e-05,152.474772979,0.00023317058693205,4.9809346622375e-05,3.0749999999965e-05,-152.47477297928
26.780000000001,3.0499999999965e-05,152.61430786272,0.00023340314507158,4.957678848284e-05,3.0499999999965e-05,-152.614307863
26.790000000001,3.0249999999965e-05,152.75384274645,0.00023363570321112,4.9344230343306e-05,3.0249999999965e-05,-152.75384274672
26.800000000001,2.9999999999965e-05,152.89337763017,0.00023386826135065,4.9111672203771e-05,2.9999999999965e-05,-152.89337763044
26.810000000001,2.9749999999965e-05,153.03291251389,0.00023410081949019,4.8879114064236e-05,2.9749999999965e-05,-153.03291251416
26.820000000001,2.9499999999965e-05,153.17244739761,0.00023433337762972,4.8646555924701e-05,2.9499999999965e-05,-153.17244739788
26.830000000001,2.9249999999965e-05,153.31198228133,0.00023456593576926,4.8413997785166e-05,2.9249999999965e-05,-153.31198228161
26.840000000001,2.8999999999965e-05,153.45151716505,0.00023479849390879,4.8181439645631e-05,2.8999999999965e-05,-153.45151716533
26.850000000001,2.8749999999965e-05,153.59105204877,0.00023503105204833,4.7948881506096e-05,2.8749999999965e-05,-153.59105204905
26.860000000001,2.8499999999965e-05,153.73058693249,0.00023526361018786,4.7716323366561e-05,2.8499999999965e-05,-153.73058693277
26.870000000001,2.8249999999965e-05,153.87012181621,0.0002354961683274,4.7483765227026e-05,2.8249999999965e-05,-153.87012181649
26.880000000001,2.7999999999965e-05,154.00965669993,0.00023572872646693,4.7251207087491e-05,2.7999999999965e-05,-154.00965670021
26.890000000001,2.7749999999965e-05,154.14919158365,0.00023596128460647,4.7018648947956e-05,2.7749999999965e-05,-154.14919158393
26.900000000001,2.7499999999965e-05,154.28872646738,0.000236193842746,4.6786090808421e-05,2.7499999999965e-05,-154.28872646765
26.910000000001,2.7249999999965e-05,154.4282613511,0.00023642640088554,4.6553532668887e-05,2.7249999999965e-05,-154.42826135137
26.920000000001,2.6999999999965e-05,154.56779623482,0.00023665895902507,4.6320974529352e-05,2.6999999999965e-05,-154.56779623509
26.930000000001,2.6749999999965e-05,154.70733111854,0.00023689151716461,4.6088416389817e-05,2.6749999999965e-05,-154.70733111882
26.940000000001,2.6499999999965e-05,154.84686600226,0.00023712407530414,4.5855858250282e-05,2.6499999999965e-05,-154.84686600254
26.950000000001,2.6249999999965e-05,154.98640088598,0.00023735663344368,4.5623300110747e-05,2.6249999999965e-05,-154.98640088626
26.960000000001,2.5999999999965e-05,155.1259357697,0.00023758919158321,4.5390741971212e-05,2.5999999999965e-05,-155.12593576998
26.970000000001,2.5749999999965e-05,155.26547065342,0.00023782174972275,4.5158183831677e-05,2.5749999999965e-05,-155.2654706537
26.980000000001,2.5499999999965e-05,155.40500553714,0.00023805430786228,4.4925625692142e-05,2.5499999999965e-05,-155.40500553742
26.990000000001,2.5249999999965e-05,155.54454042086,0.00023828686600182,4.4693067552607e-05,2.5249999999965e-05,-155.54454042114
27.000000000001,2.4999999999964e-05,155.68407530459,0.00023851942414135,4.4460509413072e-05,2.4999999999964e-05,-155.68407530486
27.010000000001,2.4749999999964e-05,155.82361018831,0.00023875198228088,4.4227951273537e-05,2.4749999999964e-05,-155.82361018858
27.020000000001,2.4499999999964e-05,155.96314507203,0.00023898454042042,4.3995393134002e-05,2.4499999999964e-05,-155.9631450723
27.030000000001,2.4249999999964e-05,156.10267995575,0.00023921709855995,4.3762834994468e-05,2.4249999999964e-05,-156.10267995602
27.040000000001,2.3999999999964e-05,156.24221483947,0.00023944965669949,4.3530276854933e-05,2.3999999999964e-05,-156.24221483975
27.050000000001,2.3749999999964e-05,156.38174972319,0.00023968221483902,4.3297718715398e-05,2.3749999999964e-05,-156.38174972347
27.060000000001,2.3499999999964e-05,156.52128460691,0.00023991477297856,4.3065160575863e-05,2.3499999999964e-05,-156.52128460719
27.070000000001,2.3249999999964e-05,156.66081949063,0.00024014733111809,4.2832602436328e-05,2.3249999999964e-05,-156.66081949091
27.080000000001,2.2999999999964e-05,156.80035437435,0.00024037988925763,4.2600044296793e-05,2.2999999999964e-05,-156.80035437463
27.090000000001,2.2749999999964e-05,156.93988925807,0.00024061244739716,4.2367486157258e-05,2.2749999999964e-05,-156.93988925835
27.100000000001,2.2499999999964e-05,157.07942414179,0.0002408450055367,4.2134928017723e-05,2.2499999999964e-05,-157.07942414207
27.110000000001,2.2249999999964e-05,157.21895902552,0.00024107756367623,4.1902369878188e-05,2.2249999999964e-05,-157.21895902579
27.120000000001,2.1999999999964e-05,157.35849390924,0.00024131012181577,4.1669811738653e-05,2.1999999999964e-05,-157.35849390951
27.130000000001,2.1749999999964e-05,157.49802879296,0.0002415426799553,4.1437253599118e-05,2.1749999999964e-05,-157.49802879323
27.140000000001,2.1499999999964e-05,157.63756367668,0.00024177523809484,4.1204695459583e-05,2.1499999999964e-05,-157.63756367696
27.150000000001,2.1249999999964e-05,157.7770985604,0.00024200779623437,4.0972137320048e-05,2.1249999999964e-05,-157.77709856068
27.160000000001,2.0999999999964e-05,157.91663344412,0.00024224035437391,4.0739579180514e-05,2.0999999999964e-05,-157.9166334444
27.170000000001,2.0749999999964e-05,158.05616832784,0.00024247291251344,4.0507021040979e-05,2.0749999999964e-05,-158.05616832812
27.180000000001,2.0499999999964e-05,158.19570321156,0.00024270547065298,4.0274462901444e-05,2.0499999999964e-05,-158.19570321184
27.190000000001,2.0249999999964e-05,158.33523809528,0.00024293802879251,4.0041904761909e-05,2.0249999999964e-05,-158.33523809556
27.200000000001,1.9999999999964e-05,158.474772979,0.00024317058693205,3.9809346622374e-05,1.9999999999964e-05,-158.47477297928
27.210000000001,1.9749999999964e-05,158.61430786273,0.00024340314507158,3.9576788482839e-05,1.9749999999964e-05,-158.614307863
27.220000000001,1.9499999999964e-05,158.75384274645,0.00024363570321112,3.9344230343304e-05,1.9499999999964e-05,-158.75384274672
27.230000000001,1.9249999999964e-05,158.89337763017,0.00024386826135065,3.9111672203769e-05,1.9249999999964e-05,-158.89337763044
27.240000000001,1.8999999999964e-05,159.03291251389,0.00024410081949019,3.8879114064234e-05,1.8999999999964e-05,-159.03291251416
27.250000000001,1.8749999999963e-05,159.17244739761,0.00024433337762972,3.8646555924699e-05,1.8749999999963e-05,-159.17244739789
27.260000000001,1.8499999999963e-05,159.31198228133,0.00024456593576926,3.8413997785164e-05,1.8499999999963e-05,-159.31198228161
27.270000000001,1.8249999999963e-05,159.45151716505,0.00024479849390879,3.8181439645629e-05,1.8249999999963e-05,-159.45151716533
27.280000000001,1.7999999999963e-05,159.59105204877,0.00024503105204833,3.7948881506095e-05,1.7999999999963e-05,-159.59105204905
27.290000000001,1.7749999999963e-05,159.73058693249,0.00024526361018786,3.771632336656e-05,1.7749999999963e-05,-159.73058693277
27.300000000001,1.7499999999963e-05,159.87012181621,0.0002454961683274,3.7483765227025e-05,1.7499999999963e-05,-159.87012181649
27.310000000001,1.7249999999963e-05,160.00965669993,0.00024572872646693,3.725120708749e-05,1.7249999999963e-05,-160.00965670021
27.320000000001,1.6999999999963e-05,160.14919158366,0.00024596128460647,3.7018648947955e-05,1.6999999999963e-05,-160.14919158393
27.330000000001,1.6749999999963e-05,160.28872646738,0.000246193842746,3.678609080842e-05,1.6749999999963e-05,-160.28872646765
27.340000000001,1.6499999999963e-05,160.4282613511,0.00024642640088554,3.6553532668885e-05,1.6499999999963e-05,-160.42826135137
27.350000000001,1.6249999999963e-05,160.56779623482,0.00024665895902507,3.632097452935e-05,1.6249999999963e-05,-160.5677962351
27.360000000001,1.5999999999963e-05,160.70733111854,0.00024689151716461,3.6088416389815e-05,1.5999999999963e-05,-160.70733111882
27.370000000001,1.5749999999963e-05,160.84686600226,0.00024712407530414,3.585585825028e-05,1.5749999999963e-05,-160.84686600254
27.380000000001,1.5499999999963e-05,160.98640088598,0.00024735663344368,3.5623300110745e-05,1.5499999999963e-05,-160.98640088626
27.390000000001,1.5249999999963e-05,161.1259357697,0.00024758919158321,3.539074197121e-05,1.5249999999963e-05,-161.12593576998
27.400000000001,1.4999999999963e-05,161.26547065342,0.00024782174972275,3.5158183831675e-05,1.4999999999963e-05,-161.2654706537
27.410000000001,1.4749999999963e-05,161.40500553714,0.00024805430786228,3.4925625692141e-05,1.4749999999963e-05,-161.40500553742
27.420000000001,1.4499999999963e-05,161.54454042087,0.00024828686600182,3.4693067552606e-05,1.4499999999963e-05,-161.54454042114
27.430000000001,1.4249999999963e-05,161.68407530459,0.00024851942414135,3.4460509413071e-05,1.4249999999963e-05,-161.68407530486
27.440000000001,1.3999999999963e-05,161.82361018831,0.00024875198228089,3.4227951273536e-05,1.3999999999963e-05,-161.82361018858
27.450000000001,1.3749999999963e-05,161.96314507203,0.00024898454042042,3.3995393134001e-05,1.3749999999963e-05,-161.9631450723
27.460000000001,1.3499999999963e-05,162.10267995575,0.00024921709855996,3.3762834994466e-05,1.3499999999963e-05,-162.10267995603
27.470000000001,1.3249999999963e-05,162.24221483947,0.00024944965669949,3.3530276854931e-05,1.3249999999963e-05,-162.24221483975
27.480000000001,1.2999999999963e-05,162.38174972319,0.00024968221483903,3.3297718715396e-05,1.2999999999963e-05,-162.38174972347
27.490000000001,1.2749999999963e-05,162.52128460691,0.00024991477297856,3.3065160575861e-05,1.2749999999963e-05,-162.52128460719
27.500000000001,1.2499999999963e-05,162.66081949063,0.0002501473311181,3.2832602436326e-05,1.2499999999963e-05,-162.66081949091
27.510000000002,1.2249999999962e-05,162.80035437435,0.00025037988925763,3.2600044296791e-05,1.2249999999962e-05,-162.80035437463
27.520000000002,1.1999999999962e-05,162.93988925807,0.00025061244739717,3.2367486157256e-05,1.1999999999962e-05,-162.93988925835
27.530000000002,1.1749999999962e-05,163.0794241418,0.0002508450055367,3.2134928017722e-05,1.1749999999962e-05,-163.07942414207
27.540000000002,1.1499999999962e-05,163.21895902552,0.00025107756367624,3.1902369878187e-05,1.1499999999962e-05,-163.21895902579
27.550000000002,1.1249999999962e-05,163.35849390924,0.00025131012181577,3.1669811738652e-05,1.1249999999962e-05,-163.35849390951
27.560000000002,1.0999999999962e-05,163.49802879296,0.00025154267995531,3.1437253599117e-05,1.0999999999962e-05,-163.49802879324
27.570000000002,1.0749999999962e-05,163.63756367668,0.00025177523809484,3.1204695459582e-05,1.0749999999962e-05,-163.63756367696
27.580000000002,1.0499999999962e-05,163.7770985604,0.00025200779623438,3.0972137320047e-05,1.0499999999962e-05,-163.77709856068
27.590000000002,1.0249999999962e-05,163.91663344412,0.00025224035437391,3.0739579180512e-05,1.0249999999962e-05,-163.9166334444
27.600000000002,9.9999999999621e-06,164.05616832784,0.00025247291251345,3.0507021040977e-05,9.9999999999621e-06,-164.05616832812
27.610000000002,9.7499999999621e-06,164.19570321156,0.00025270547065298,3.0274462901442e-05,9.7499999999621e-06,-164.19570321184
27.620000000002,9.499999999962e-06,164.33523809528,0.00025293802879251,3.0041904761907e-05,9.499999999962e-06,-164.33523809556
27.630000000002,9.249999999962e-06,164.47477297901,0.00025317058693205,2.9809346622372e-05,9.249999999962e-06,-164.47477297928
27.640000000002,8.999999999962e-06,164.61430786273,0.00025340314507158,2.9576788482837e-05,8.999999999962e-06,-164.614307863
27.650000000002,8.7499999999619e-06,164.75384274645,0.00025363570321112,2.9344230343303e-05,8.7499999999619e-06,-164.75384274672
27.660000000002,8.4999999999619e-06,164.89337763017,0.00025386826135065,2.9111672203768e-05,8.4999999999619e-06,-164.89337763044
27.670000000002,8.2499999999618e-06,165.03291251389,0.00025410081949019,2.8879114064233e-05,8.2499999999618e-06,-165.03291251417
27.680000000002,7.9999999999618e-06,165.17244739761,0.00025433337762972,2.8646555924698e-05,7.9999999999618e-06,-165.17244739789
27.690000000002,7.7499999999618e-06,165.31198228133,0.00025456593576926,2.8413997785163e-05,7.7499999999618e-06,-165.31198228161
27.700000000002,7.4999999999617e-06,165.45151716505,0.00025479849390879,2.8181439645628e-05,7.4999999999617e-06,-165.45151716533
27.710000000002,7.2499999999617e-06,165.59105204877,0.00025503105204833,2.7948881506093e-05,7.2499999999617e-06,-165.59105204905
27.720000000002,6.9999999999617e-06,165.73058693249,0.00025526361018786,2.7716323366558e-05,6.9999999999617e-06,-165.73058693277
27.730000000002,6.7499999999616e-06,165.87012181621,0.0002554961683274,2.7483765227023e-05,6.7499999999616e-06,-165.87012181649
27.740000000002,6.4999999999616e-06,166.00965669994,0.00025572872646693,2.7251207087488e-05,6.4999999999616e-06,-166.00965670021
27.750000000002,6.2499999999615e-06,166.14919158366,0.00025596128460647,2.7018648947953e-05,6.2499999999615e-06,-166.14919158393
27.760000000002,5.9999999999615e-06,166.28872646738,0.000256193842746,2.6786090808418e-05,5.9999999999615e-06,-166.28872646765
27.770000000002,5.7499999999615e-06,166.4282613511,0.00025642640088554,2.6553532668883e-05,5.7499999999615e-06,-166.42826135138
27.780000000002,5.4999999999614e-06,166.56779623482,0.00025665895902507,2.6320974529349e-05,5.4999999999614e-06,-166.5677962351
27.790000000002,5.2499999999614e-06,166.70733111854,0.00025689151716461,2.6088416389814e-05,5.2499999999614e-06,-166.70733111882
27.800000000002,4.9999999999613e-06,166.84686600226,0.00025712407530414,2.5855858250279e-05,4.9999999999613e-06,-166.84686600254
27.810000000002,4.7499999999613e-06,166.98640088598,0.00025735663344368,2.5623300110744e-05,4.7499999999613e-06,-166.98640088626
27.820000000002,4.4999999999613e-06,167.1259357697,0.00025758919158321,2.5390741971209e-05,4.4999999999613e-06,-167.12593576998
27.830000000002,4.2499999999612e-06,167.26547065342,0.00025782174972275,2.5158183831674e-05,4.2499999999612e-06,-167.2654706537
27.840000000002,3.9999999999612e-06,167.40500553715,0.00025805430786228,2.4925625692139e-05,3.9999999999612e-06,-167.40500553742
27.850000000002,3.7499999999612e-06,167.54454042087,0.00025828686600182,2.4693067552604e-05,3.7499999999612e-06,-167.54454042114
27.860000000002,3.4999999999611e-06,167.68407530459,0.00025851942414135,2.4460509413069e-05,3.4999999999611e-06,-167.68407530486
27.870000000002,3.2499999999611e-06,167.82361018831,0.00025875198228089,2.4227951273534e-05,3.2499999999611e-06,-167.82361018858
27.880000000002,2.999999999961e-06,167.96314507203,0.00025898454042042,2.3995393133999e-05,2.999999999961e-06,-167.96314507231
27.890000000002,2.749999999961e-06,168.10267995575,0.00025921709855996,2.3762834994464e-05,2.749999999961e-06,-168.10267995603
27.900000000002,2.4999999999609e-06,168.24221483947,0.00025944965669949,2.353027685493e-05,2.4999999999609e-06,-168.24221483975
27.910000000002,2.2499999999609e-06,168.38174972319,0.00025968221483903,2.3297718715395e-05,2.2499999999609e-06,-168.38174972347
27.920000000002,1.9999999999609e-06,168.52128460691,0.00025991477297856,2.306516057586e-05,1.9999999999609e-06,-168.52128460719
27.930000000002,1.7499999999608e-06,168.66081949063,0.0002601473311181,2.2832602436325e-05,1.7499999999608e-06,-168.66081949091
27.940000000002,1.4999999999608e-06,168.80035437435,0.00026037988925763,2.260004429679e-05,1.4999999999608e-06,-168.80035437463
27.950000000002,1.2499999999608e-06,168.93988925808,0.00026061244739717,2.2367486157255e-05,1.2499999999608e-06,-168.93988925835
27.960000000002,9.9999999996072e-07,169.0794241418,0.0002608450055367,2.213492801772e-05,9.9999999996072e-07,-169.07942414207
27.970000000002,7.4999999996069e-07,169.21895902552,0.00026107756367624,2.1902369878185e-05,7.4999999996069e-07,-169.21895902579
27.980000000002,4.9999999996063e-07,169.35849390924,0.00026131012181577,2.166981173865e-05,4.9999999996063e-07,-169.35849390952
27.990000000002,2.499999999606e-07,169.49802879296,0.00026154267995531,2.1437253599115e-05,2.499999999606e-07,-169.49802879324
28.000000000002,-3.943785402416e-17,169.63756367668,0.00026177523809484,2.120469545958e-05,-3.943785402416e-17,-169.63756367696
28.010000000002,-2.5000000003948e-07,169.7770985604,0.00026200779623438,2.0972137320045e-05,-2.5000000003948e-07,-169.77709856068
28.020000000002,-5.0000000003952e-07,169.91663344412,0.00026224035437391,2.073957918051e-05,-5.0000000003952e-07,-169.9166334444
28.030000000002,-7.5000000003955e-07,170.05616832784,0.00026247291251345,2.0507021040976e-05,-7.5000000003955e-07,-170.05616832812
28.040000000002,-1.0000000000396e-06,170.19570321156,0.00026270547065298,2.0274462901441e-05,-1.0000000000396e-06,-170.19570321184
28.050000000002,-1.2500000000396e-06,170.33523809529,0.00026293802879252,2.0041904761906e-05,-1.2500000000396e-06,-170.33523809556
28.060000000002,-1.5000000000397e-06,170.47477297901,0.00026317058693205,1.9809346622371e-05,-1.5000000000397e-06,-170.47477297928
28.070000000002,-1.7500000000397e-06,170.61430786273,0.00026340314507159,1.9576788482836e-05,-1.7500000000397e-06,-170.614307863
28.080000000002,-2.0000000000398e-06,170.75384274645,0.00026363570321112,1.9344230343301e-05,-2.0000000000398e-06,-170.75384274672
28.090000000002,-2.2500000000398e-06,170.89337763017,0.00026386826135066,1.9111672203766e-05,-2.2500000000398e-06,-170.89337763045
28.100000000002,-2.5000000000398e-06,171.03291251389,0.00026410081949019,1.8879114064231e-05,-2.5000000000398e-06,-171.03291251417
28.110000000002,-2.7500000000399e-06,171.17244739761,0.00026433337762973,1.8646555924696e-05,-2.7500000000399e-06,-171.17244739789
28.120000000002,-3.0000000000399e-06,171.31198228133,0.00026456593576926,1.8413997785161e-05,-3.0000000000399e-06,-171.31198228161
28.130000000002,-3.25000000004e-06,171.45151716505,0.0002647984939088,1.8181439645626e-05,-3.25000000004e-06,-171.45151716533
28.140000000002,-3.50000000004e-06,171.59105204877,0.00026503105204833,1.7948881506091e-05,-3.50000000004e-06,-171.59105204905
28.150000000002,-3.75000000004e-06,171.73058693249,0.00026526361018787,1.7716323366557e-05,-3.75000000004e-06,-171.73058693277
28.160000000002,-4.0000000000401e-06,171.87012181622,0.0002654961683274,1.7483765227022e-05,-4.0000000000401e-06,-171.87012181649
28.170000000002,-4.2500000000401e-06,172.00965669994,0.00026572872646694,1.7251207087487e-05,-4.2500000000401e-06,-172.00965670021
28.180000000002,-4.5000000000401e-06,172.14919158366,0.00026596128460647,1.7018648947952e-05,-4.5000000000401e-06,-172.14919158393
28.190000000002,-4.7500000000402e-06,172.28872646738,0.00026619384274601,1.6786090808417e-05,-4.7500000000402e-06,-172.28872646766
28.200000000002,-5.0000000000402e-06,172.4282613511,0.00026642640088554,1.6553532668882e-05,-5.0000000000402e-06,-172.42826135138
28.210000000002,-5.2500000000403e-06,172.56779623482,0.00026665895902508,1.6320974529347e-05,-5.2500000000403e-06,-172.5677962351
28.220000000002,-5.5000000000403e-06,172.70733111854,0.00026689151716461,1.6088416389812e-05,-5.5000000000403e-06,-172.70733111882
28.230000000002,-5.7500000000403e-06,172.84686600226,0.00026712407530414,1.5855858250277e-05,-5.7500000000403e-06,-172.84686600254
28.240000000002,-6.0000000000404e-06,172.98640088598,0.00026735663344368,1.5623300110742e-05,-6.0000000000404e-06,-172.98640088626
28.250000000002,-6.2500000000404e-06,173.1259357697,0.00026758919158321,1.5390741971207e-05,-6.2500000000404e-06,-173.12593576998
28.260000000002,-6.5000000000405e-06,173.26547065343,0.00026782174972275,1.5158183831672e-05,-6.5000000000405e-06,-173.2654706537
28.270000000002,-6.7500000000405e-06,173.40500553715,0.00026805430786228,1.4925625692137e-05,-6.7500000000405e-06,-173.40500553742
28.280000000002,-7.0000000000405e-06,173.54454042087,0.00026828686600182,1.4693067552603e-05,-7.0000000000405e-06,-173.54454042114
28.290000000002,-7.2500000000406e-06,173.68407530459,0.00026851942414135,1.4460509413068e-05,-7.2500000000406e-06,-173.68407530486
28.300000000002,-7.5000000000406e-06,173.82361018831,0.00026875198228089,1.4227951273533e-05,-7.5000000000406e-06,-173.82361018859
28.310000000002,-7.7500000000407e-06,173.96314507203,0.00026898454042042,1.3995393133998e-05,-7.7500000000407e-06,-173.96314507231
28.320000000002,-8.0000000000407e-06,174.10267995575,0.00026921709855996,1.3762834994463e-05,-8.0000000000407e-06,-174.10267995603
28.330000000002,-8.2500000000407e-06,174.24221483947,0.00026944965669949,1.3530276854928e-05,-8.2500000000407e-06,-174.24221483975
28.340000000002,-8.5000000000408e-06,174.38174972319,0.00026968221483903,1.3297718715393e-05,-8.5000000000408e-06,-174.38174972347
28.350000000002,-8.7500000000408e-06,174.52128460691,0.00026991477297856,1.3065160575858e-05,-8.7500000000408e-06,-174.52128460719
28.360000000002,-9.0000000000408e-06,174.66081949063,0.0002701473311181,1.2832602436323e-05,-9.0000000000408e-06,-174.66081949091
28.370000000002,-9.2500000000409e-06,174.80035437436,0.00027037988925763,1.2600044296788e-05,-9.2500000000409e-06,-174.80035437463
28.380000000002,-9.5000000000409e-06,174.93988925808,0.00027061244739717,1.2367486157253e-05,-9.5000000000409e-06,-174.93988925835
28.390000000002,-9.750000000041e-06,175.0794241418,0.0002708450055367,1.2134928017718e-05,-9.750000000041e-06,-175.07942414207
28.400000000002,-1.0000000000041e-05,175.21895902552,0.00027107756367624,1.1902369878184e-05,-1.0000000000041e-05,-175.2189590258
28.410000000002,-1.0250000000041e-05,175.35849390924,0.00027131012181577,1.1669811738649e-05,-1.0250000000041e-05,-175.35849390952
28.420000000002,-1.0500000000041e-05,175.49802879296,0.00027154267995531,1.1437253599114e-05,-1.0500000000041e-05,-175.49802879324
28.430000000002,-1.0750000000041e-05,175.63756367668,0.00027177523809484,1.1204695459579e-05,-1.0750000000041e-05,-175.63756367696
28.440000000002,-1.1000000000041e-05,175.7770985604,0.00027200779623438,1.0972137320044e-05,-1.1000000000041e-05,-175.77709856068
28.450000000002,-1.1250000000041e-05,175.91663344412,0.00027224035437391,1.0739579180509e-05,-1.1250000000041e-05,-175.9166334444
28.460000000002,-1.1500000000041e-05,176.05616832784,0.00027247291251345,1.0507021040974e-05,-1.1500000000041e-05,-176.05616832812
28.470000000002,-1.1750000000041e-05,176.19570321157,0.00027270547065298,1.0274462901439e-05,-1.1750000000041e-05,-176.19570321184
28.480000000002,-1.2000000000041e-05,176.33523809529,0.00027293802879252,1.0041904761904e-05,-1.2000000000041e-05,-176.33523809556
28.490000000002,-1.2250000000041e-05,176.04952380961,0.0002732237430782,9.7561904762245e-06,-1.2250000000041e-05,-176.04952381013
28.500000000002,-1.2500000000041e-05,175.76380952389,0.00027350945736391,9.4704761905103e-06,-1.2500000000041e-05,-175.76380952441
28.510000000002,-1.2750000000041e-05,175.47809523818,0.00027379517164963,9.184761904796e-06,-1.2750000000041e-05,-175.4780952387
28.520000000002,-1.3000000000041e-05,175.19238095246,0.00027408088593534,8.8990476190818e-06,-1.3000000000041e-05,-175.19238095298
28.530000000002,-1.3250000000042e-05,174.90666666675,0.00027436660022105,8.6133333333675e-06,-1.3250000000042e-05,-174.90666666727
28.540000000002,-1.3500000000042e-05,174.62095238104,0.00027465231450677,8.3276190476532e-06,-1.3500000000042e-05,-174.62095238156
28.550000000002,-1.3750000000042e-05,174.33523809532,0.00027493802879248,8.041904761939e-06,-1.3750000000042e-05,-174.33523809584
28.560000000002,-1.4000000000042e-05,174.04952380961,0.0002752237430782,7.7561904762247e-06,-1.4000000000042e-05,-174.04952381013
28.570000000002,-1.4250000000042e-05,173.76380952389,0.00027550945736391,7.4704761905105e-06,-1.4250000000042e-05,-173.76380952442
28.580000000002,-1.4500000000042e-05,173.47809523818,0.00027579517164963,7.1847619047962e-06,-1.4500000000042e-05,-173.4780952387
28.590000000002,-1.4750000000042e-05,173.19238095246,0.00027608088593534,6.8990476190819e-06,-1.4750000000042e-05,-173.19238095299
28.600000000002,-1.5000000000042e-05,172.90666666675,0.00027636660022105,6.6133333333677e-06,-1.5000000000042e-05,-172.90666666727
28.610000000002,-1.5250000000042e-05,172.62095238104,0.00027665231450677,6.3276190476535e-06,-1.5250000000042e-05,-172.62095238156
28.620000000002,-1.5500000000042e-05,172.33523809532,0.00027693802879248,6.0419047619392e-06,-1.5500000000042e-05,-172.33523809585
28.630000000002,-1.5750000000042e-05,172.04952380961,0.0002772237430782,5.7561904762249e-06,-1.5750000000042e-05,-172.04952381013
28.640000000002,-1.6000000000042e-05,171.76380952389,0.00027750945736391,5.4704761905107e-06,-1.6000000000042e-05,-171.76380952442
28.650000000002,-1.6250000000042e-05,171.47809523818,0.00027779517164963,5.1847619047964e-06,-1.6250000000042e-05,-171.47809523871
28.660000000002,-1.6500000000042e-05,171.19238095246,0.00027808088593534,4.8990476190822e-06,-1.6500000000042e-05,-171.19238095299
28.670000000002,-1.6750000000042e-05,170.90666666675,0.00027836660022105,4.6133333333679e-06,-1.6750000000042e-05,-170.90666666728
28.680000000002,-1.7000000000042e-05,170.62095238104,0.00027865231450677,4.3276190476536e-06,-1.7000000000042e-05,-170.62095238156
28.690000000002,-1.7250000000042e-05,170.33523809532,0.00027893802879248,4.0419047619394e-06,-1.7250000000042e-05,-170.33523809585
28.700000000002,-1.7500000000042e-05,170.04952380961,0.0002792237430782,3.7561904762251e-06,-1.7500000000042e-05,-170.04952381014
28.710000000002,-1.7750000000042e-05,169.76380952389,0.00027950945736391,3.4704761905109e-06,-1.7750000000042e-05,-169.76380952442
28.720000000002,-1.8000000000042e-05,169.47809523818,0.00027979517164963,3.1847619047966e-06,-1.8000000000042e-05,-169.47809523871
28.730000000002,-1.8250000000042e-05,169.19238095246,0.00028008088593534,2.8990476190824e-06,-1.8250000000042e-05,-169.192380953
28.740000000002,-1.8500000000042e-05,168.90666666675,0.00028036660022105,2.6133333333681e-06,-1.8500000000042e-05,-168.90666666728
28.750000000002,-1.8750000000042e-05,168.62095238104,0.00028065231450677,2.3276190476539e-06,-1.8750000000042e-05,-168.62095238157
28.760000000002,-1.9000000000042e-05,168.33523809532,0.00028093802879248,2.0419047619396e-06,-1.9000000000042e-05,-168.33523809586
28.770000000002,-1.9250000000042e-05,168.04952380961,0.0002812237430782,1.7561904762254e-06,-1.9250000000042e-05,-168.04952381014
28.780000000002,-1.9500000000042e-05,167.76380952389,0.00028150945736391,1.4704761905111e-06,-1.9500000000042e-05,-167.76380952443
28.790000000002,-1.9750000000043e-05,167.47809523818,0.00028179517164963,1.1847619047969e-06,-1.9750000000043e-05,-167.47809523871
28.800000000002,-2.0000000000043e-05,167.19238095246,0.00028208088593534,8.9904761908258e-07,-2.0000000000043e-05,-167.192380953
28.810000000002,-2.0250000000043e-05,166.90666666675,0.00028236660022105,6.1333333336833e-07,-2.0250000000043e-05,-166.90666666729
28.820000000002,-2.0500000000043e-05,166.62095238104,0.00028265231450677,3.2761904765408e-07,-2.0500000000043e-05,-166.62095238157
28.830000000002,-2.0750000000043e-05,166.33523809532,0.00028293802879248,4.1904761939824e-08,-2.0750000000043e-05,-166.33523809586
28.840000000002,-2.1000000000043e-05,166.04952380961,0.0002832237430782,-2.4380952377442e-07,-2.1000000000043e-05,-166.04952381015
28.850000000002,-2.1250000000043e-05,165.76380952389,0.00028350945736391,-5.2952380948867e-07,-2.1250000000043e-05,-165.76380952443
28.860000000002,-2.1500000000043e-05,165.47809523818,0.00028379517164963,-8.1523809520293e-07,-2.1500000000043e-05,-165.47809523872
28.870000000002,-2.1750000000043e-05,165.19238095247,0.00028408088593534,-1.1009523809172e-06,-2.1750000000043e-05,-165.192380953
28.880000000002,-2.2000000000043e-05,164.90666666675,0.00028436660022105,-1.3866666666314e-06,-2.2000000000043e-05,-164.90666666729
28.890000000002,-2.2250000000043e-05,164.62095238104,0.00028465231450677,-1.6723809523457e-06,-2.2250000000043e-05,-164.62095238158
28.900000000002,-2.2500000000043e-05,164.33523809532,0.00028493802879248,-1.9580952380599e-06,-2.2500000000043e-05,-164.33523809586
28.910000000002,-2.2750000000043e-05,164.04952380961,0.0002852237430782,-2.2438095237742e-06,-2.2750000000043e-05,-164.04952381015
28.920000000002,-2.3000000000043e-05,163.76380952389,0.00028550945736391,-2.5295238094884e-06,-2.3000000000043e-05,-163.76380952444
28.930000000002,-2.3250000000043e-05,163.47809523818,0.00028579517164962,-2.8152380952027e-06,-2.3250000000043e-05,-163.47809523872
28.940000000002,-2.3500000000043e-05,163.19238095247,0.00028608088593534,-3.1009523809169e-06,-2.3500000000043e-05,-163.19238095301
28.950000000002,-2.3750000000043e-05,162.90666666675,0.00028636660022105,-3.3866666666312e-06,-2.3750000000043e-05,-162.90666666729
28.960000000002,-2.4000000000043e-05,162.62095238104,0.00028665231450677,-3.6723809523455e-06,-2.4000000000043e-05,-162.62095238158
28.970000000002,-2.4250000000043e-05,162.33523809532,0.00028693802879248,-3.9580952380597e-06,-2.4250000000043e-05,-162.33523809587
28.980000000002,-2.4500000000043e-05,162.04952380961,0.0002872237430782,-4.2438095237739e-06,-2.4500000000043e-05,-162.04952381015
28.990000000002,-2.4750000000043e-05,161.76380952389,0.00028750945736391,-4.5295238094882e-06,-2.4750000000043e-05,-161.76380952444
29.000000000002,-2.5000000000043e-05,161.47809523818,0.00028779517164962,-4.8152380952024e-06,-2.5000000000043e-05,-161.47809523873
29.010000000002,-2.5250000000043e-05,161.19238095247,0.00028808088593534,-5.1009523809167e-06,-2.5250000000043e-05,-161.19238095301
29.020000000002,-2.5500000000043e-05,160.90666666675,0.00028836660022105,-5.3866666666309e-06,-2.5500000000043e-05,-160.9066666673
29.030000000002,-2.5750000000043e-05,160.62095238104,0.00028865231450677,-5.6723809523452e-06,-2.5750000000043e-05,-160.62095238159
29.040000000002,-2.6000000000043e-05,160.33523809532,0.00028893802879248,-5.9580952380594e-06,-2.6000000000044e-05,-160.33523809587
29.050000000002,-2.6250000000044e-05,160.04952380961,0.0002892237430782,-6.2438095237737e-06,-2.6250000000044e-05,-160.04952381016
29.060000000002,-2.6500000000044e-05,159.76380952389,0.00028950945736391,-6.5295238094879e-06,-2.6500000000044e-05,-159.76380952444
29.070000000002,-2.6750000000044e-05,159.47809523818,0.00028979517164962,-6.8152380952022e-06,-2.6750000000044e-05,-159.47809523873
29.080000000002,-2.7000000000044e-05,159.19238095247,0.00029008088593534,-7.1009523809164e-06,-2.7000000000044e-05,-159.19238095302
29.090000000002,-2.7250000000044e-05,158.90666666675,0.00029036660022105,-7.3866666666307e-06,-2.7250000000044e-05,-158.9066666673
29.100000000002,-2.7500000000044e-05,158.62095238104,0.00029065231450677,-7.6723809523449e-06,-2.7500000000044e-05,-158.62095238159
29.110000000002,-2.7750000000044e-05,158.33523809532,0.00029093802879248,-7.9580952380592e-06,-2.7750000000044e-05,-158.33523809588
29.120000000002,-2.8000000000044e-05,158.04952380961,0.0002912237430782,-8.2438095237734e-06,-2.8000000000044e-05,-158.04952381016
29.130000000002,-2.8250000000044e-05,157.76380952389,0.00029150945736391,-8.5295238094877e-06,-2.8250000000044e-05,-157.76380952445
29.140000000002,-2.8500000000044e-05,157.47809523818,0.00029179517164962,-8.8152380952019e-06,-2.8500000000044e-05,-157.47809523873
29.150000000002,-2.8750000000044e-05,157.19238095247,0.00029208088593534,-9.1009523809162e-06,-2.8750000000044e-05,-157.19238095302
29.160000000002,-2.9000000000044e-05,156.90666666675,0.00029236660022105,-9.3866666666304e-06,-2.9000000000044e-05,-156.90666666731
29.170000000002,-2.9250000000044e-05,156.62095238104,0.00029265231450677,-9.6723809523447e-06,-2.9250000000044e-05,-156.62095238159
29.180000000002,-2.9500000000044e-05,156.33523809532,0.00029293802879248,-9.9580952380589e-06,-2.9500000000044e-05,-156.33523809588
29.190000000002,-2.9750000000044e-05,156.04952380961,0.0002932237430782,-1.0243809523773e-05,-2.9750000000044e-05,-156.04952381017
29.200000000002,-3.0000000000044e-05,155.76380952389,0.00029350945736391,-1.0529523809487e-05,-3.0000000000044e-05,-155.76380952445
29.210000000002,-3.0250000000044e-05,155.47809523818,0.00029379517164962,-1.0815238095202e-05,-3.0250000000044e-05,-155.47809523874
29.220000000002,-3.0500000000044e-05,155.19238095247,0.00029408088593534,-1.1100952380916e-05,-3.0500000000044e-05,-155.19238095303
29.230000000002,-3.0750000000044e-05,154.90666666675,0.00029436660022105,-1.138666666663e-05,-3.0750000000044e-05,-154.90666666731
29.240000000002,-3.1000000000044e-05,154.62095238104,0.00029465231450677,-1.1672380952344e-05,-3.1000000000044e-05,-154.6209523816
29.250000000002,-3.1250000000044e-05,154.33523809532,0.00029493802879248,-1.1958095238059e-05,-3.1250000000044e-05,-154.33523809588
29.260000000002,-3.1500000000044e-05,154.04952380961,0.0002952237430782,-1.2243809523773e-05,-3.1500000000044e-05,-154.04952381017
29.270000000002,-3.1750000000044e-05,153.7638095239,0.00029550945736391,-1.2529523809487e-05,-3.1750000000044e-05,-153.76380952446
29.280000000002,-3.2000000000044e-05,153.47809523818,0.00029579517164962,-1.2815238095201e-05,-3.2000000000044e-05,-153.47809523874
29.290000000002,-3.2250000000044e-05,153.19238095247,0.00029608088593534,-1.3100952380916e-05,-3.2250000000044e-05,-153.19238095303
29.300000000002,-3.2500000000045e-05,152.90666666675,0.00029636660022105,-1.338666666663e-05,-3.2500000000045e-05,-152.90666666732
29.310000000002,-3.2750000000045e-05,152.62095238104,0.00029665231450677,-1.3672380952344e-05,-3.2750000000045e-05,-152.6209523816
29.320000000002,-3.3000000000045e-05,152.33523809532,0.00029693802879248,-1.3958095238058e-05,-3.3000000000045e-05,-152.33523809589
29.330000000002,-3.3250000000045e-05,152.04952380961,0.00029722374307819,-1.4243809523773e-05,-3.3250000000045e-05,-152.04952381018
29.340000000002,-3.3500000000045e-05,151.7638095239,0.00029750945736391,-1.4529523809487e-05,-3.3500000000045e-05,-151.76380952446
29.350000000002,-3.3750000000045e-05,151.47809523818,0.00029779517164962,-1.4815238095201e-05,-3.3750000000045e-05,-151.47809523875
29.360000000002,-3.4000000000045e-05,151.19238095247,0.00029808088593534,-1.5100952380915e-05,-3.4000000000045e-05,-151.19238095303
29.370000000002,-3.4250000000045e-05,150.90666666675,0.00029836660022105,-1.538666666663e-05,-3.4250000000045e-05,-150.90666666732
29.380000000002,-3.4500000000045e-05,150.62095238104,0.00029865231450677,-1.5672380952344e-05,-3.4500000000045e-05,-150.62095238161
29.390000000002,-3.4750000000045e-05,150.33523809532,0.00029893802879248,-1.5958095238058e-05,-3.4750000000045e-05,-150.33523809589
29.400000000002,-3.5000000000045e-05,150.04952380961,0.00029922374307819,-1.6243809523772e-05,-3.5000000000045e-05,-150.04952381018
29.410000000002,-3.5250000000045e-05,149.7638095239,0.00029950945736391,-1.6529523809487e-05,-3.5250000000045e-05,-149.76380952447
29.420000000002,-3.5500000000045e-05,149.47809523818,0.00029979517164962,-1.6815238095201e-05,-3.5500000000045e-05,-149.47809523875
29.430000000002,-3.5750000000045e-05,149.19238095247,0.00030008088593534,-1.7100952380915e-05,-3.5750000000045e-05,-149.19238095304
29.440000000002,-3.6000000000045e-05,148.90666666675,0.00030036660022105,-1.7386666666629e-05,-3.6000000000045e-05,-148.90666666733
29.450000000002,-3.6250000000045e-05,148.62095238104,0.00030065231450677,-1.7672380952343e-05,-3.6250000000045e-05,-148.62095238161
29.460000000002,-3.6500000000045e-05,148.33523809532,0.00030093802879248,-1.7958095238058e-05,-3.6500000000045e-05,-148.3352380959
29.470000000002,-3.6750000000045e-05,148.04952380961,0.00030122374307819,-1.8243809523772e-05,-3.6750000000045e-05,-148.04952381018
29.480000000002,-3.7000000000045e-05,147.7638095239,0.00030150945736391,-1.8529523809486e-05,-3.7000000000045e-05,-147.76380952447
29.490000000002,-3.7250000000045e-05,147.47809523818,0.00030179517164962,-1.88152380952e-05,-3.7250000000045e-05,-147.47809523876
29.500000000002,-3.7500000000045e-05,147.19238095247,0.00030208088593534,-1.9100952380915e-05,-3.7500000000045e-05,-147.19238095304
29.510000000002,-3.7750000000045e-05,146.90666666675,0.00030236660022105,-1.9386666666629e-05,-3.7750000000045e-05,-146.90666666733
29.520000000002,-3.8000000000045e-05,146.62095238104,0.00030265231450677,-1.9672380952343e-05,-3.8000000000045e-05,-146.62095238162
29.530000000002,-3.8250000000045e-05,146.33523809532,0.00030293802879248,-1.9958095238057e-05,-3.8250000000045e-05,-146.3352380959
29.540000000002,-3.8500000000045e-05,146.04952380961,0.00030322374307819,-2.0243809523772e-05,-3.8500000000045e-05,-146.04952381019
29.550000000002,-3.8750000000045e-05,145.7638095239,0.00030350945736391,-2.0529523809486e-05,-3.8750000000045e-05,-145.76380952448
29.560000000002,-3.9000000000046e-05,145.47809523818,0.00030379517164962,-2.08152380952e-05,-3.9000000000046e-05,-145.47809523876
29.570000000002,-3.9250000000046e-05,145.19238095247,0.00030408088593534,-2.1100952380914e-05,-3.9250000000046e-05,-145.19238095305
29.580000000002,-3.9500000000046e-05,144.90666666675,0.00030436660022105,-2.1386666666629e-05,-3.9500000000046e-05,-144.90666666733
29.590000000002,-3.9750000000046e-05,144.62095238104,0.00030465231450677,-2.1672380952343e-05,-3.9750000000046e-05,-144.62095238162
29.600000000002,-4.0000000000046e-05,144.33523809533,0.00030493802879248,-2.1958095238057e-05,-4.0000000000046e-05,-144.33523809591
29.610000000002,-4.0250000000046e-05,144.04952380961,0.00030522374307819,-2.2243809523771e-05,-4.0250000000046e-05,-144.04952381019
29.620000000002,-4.0500000000046e-05,143.7638095239,0.00030550945736391,-2.2529523809486e-05,-4.0500000000046e-05,-143.76380952448
29.630000000002,-4.0750000000046e-05,143.47809523818,0.00030579517164962,-2.28152380952e-05,-4.0750000000046e-05,-143.47809523877
29.640000000002,-4.1000000000046e-05,143.19238095247,0.00030608088593534,-2.3100952380914e-05,-4.1000000000046e-05,-143.19238095305
29.650000000002,-4.1250000000046e-05,142.90666666675,0.00030636660022105,-2.3386666666628e-05,-4.1250000000046e-05,-142.90666666734
29.660000000002,-4.1500000000046e-05,142.62095238104,0.00030665231450676,-2.3672380952343e-05,-4.1500000000046e-05,-142.62095238163
29.670000000002,-4.1750000000046e-05,142.33523809533,0.00030693802879248,-2.3958095238057e-05,-4.1750000000046e-05,-142.33523809591
29.680000000002,-4.2000000000046e-05,142.04952380961,0.00030722374307819,-2.4243809523771e-05,-4.2000000000046e-05,-142.0495238102
29.690000000002,-4.2250000000046e-05,141.7638095239,0.00030750945736391,-2.4529523809485e-05,-4.2250000000046e-05,-141.76380952449
29.700000000002,-4.2500000000046e-05,141.47809523818,0.00030779517164962,-2.48152380952e-05,-4.2500000000046e-05,-141.47809523877
29.710000000002,-4.2750000000046e-05,141.19238095247,0.00030808088593534,-2.5100952380914e-05,-4.2750000000046e-05,-141.19238095306
29.720000000002,-4.3000000000046e-05,140.90666666675,0.00030836660022105,-2.5386666666628e-05,-4.3000000000046e-05,-140.90666666734
29.730000000002,-4.3250000000046e-05,140.62095238104,0.00030865231450676,-2.5672380952342e-05,-4.3250000000046e-05,-140.62095238163
29.740000000002,-4.3500000000046e-05,140.33523809533,0.00030893802879248,-2.5958095238056e-05,-4.3500000000046e-05,-140.33523809592
29.750000000002,-4.3750000000046e-05,140.04952380961,0.00030922374307819,-2.6243809523771e-05,-4.3750000000046e-05,-140.0495238102
29.760000000002,-4.4000000000046e-05,139.7638095239,0.00030950945736391,-2.6529523809485e-05,-4.4000000000046e-05,-139.76380952449
29.770000000002,-4.4250000000046e-05,139.47809523818,0.00030979517164962,-2.6815238095199e-05,-4.4250000000046e-05,-139.47809523878
29.780000000002,-4.4500000000046e-05,139.19238095247,0.00031008088593534,-2.7100952380913e-05,-4.4500000000046e-05,-139.19238095306
29.790000000002,-4.4750000000046e-05,138.90666666675,0.00031036660022105,-2.7386666666628e-05,-4.4750000000046e-05,-138.90666666735
29.800000000002,-4.5000000000046e-05,138.62095238104,0.00031065231450676,-2.7672380952342e-05,-4.5000000000046e-05,-138.62095238164
29.810000000002,-4.5250000000047e-05,138.33523809533,0.00031093802879248,-2.7958095238056e-05,-4.5250000000047e-05,-138.33523809592
29.820000000002,-4.5500000000047e-05,138.04952380961,0.00031122374307819,-2.824380952377e-05,-4.5500000000047e-05,-138.04952381021
29.830000000002,-4.5750000000047e-05,137.7638095239,0.00031150945736391,-2.8529523809485e-05,-4.5750000000047e-05,-137.7638095245
29.840000000002,-4.6000000000047e-05,137.47809523818,0.00031179517164962,-2.8815238095199e-05,-4.6000000000047e-05,-137.47809523878
29.850000000002,-4.6250000000047e-05,137.19238095247,0.00031208088593534,-2.9100952380913e-05,-4.6250000000047e-05,-137.19238095307
29.860000000002,-4.6500000000047e-05,136.90666666675,0.00031236660022105,-2.9386666666627e-05,-4.6500000000047e-05,-136.90666666735
29.870000000002,-4.6750000000047e-05,136.62095238104,0.00031265231450676,-2.9672380952342e-05,-4.6750000000047e-05,-136.62095238164
29.880000000002,-4.7000000000047e-05,136.33523809533,0.00031293802879248,-2.9958095238056e-05,-4.7000000000047e-05,-136.33523809593
29.890000000002,-4.7250000000047e-05,136.04952380961,0.00031322374307819,-3.024380952377e-05,-4.7250000000047e-05,-136.04952381021
29.900000000002,-4.7500000000047e-05,135.7638095239,0.00031350945736391,-3.0529523809484e-05,-4.7500000000047e-05,-135.7638095245
29.910000000002,-4.7750000000047e-05,135.47809523818,0.00031379517164962,-3.0815238095198e-05,-4.7750000000047e-05,-135.47809523879
29.920000000002,-4.8000000000047e-05,135.19238095247,0.00031408088593533,-3.1100952380913e-05,-4.8000000000047e-05,-135.19238095307
29.930000000002,-4.8250000000047e-05,134.90666666676,0.00031436660022105,-3.1386666666627e-05,-4.8250000000047e-05,-134.90666666736
29.940000000002,-4.8500000000047e-05,134.62095238104,0.00031465231450676,-3.1672380952341e-05,-4.8500000000047e-05,-134.62095238165
29.950000000002,-4.8750000000047e-05,134.33523809533,0.00031493802879248,-3.1958095238055e-05,-4.8750000000047e-05,-134.33523809593
29.960000000002,-4.9000000000047e-05,134.04952380961,0.00031522374307819,-3.224380952377e-05,-4.9000000000047e-05,-134.04952381022
29.970000000002,-4.9250000000047e-05,133.7638095239,0.00031550945736391,-3.2529523809484e-05,-4.9250000000047e-05,-133.76380952451
29.980000000002,-4.9500000000047e-05,133.47809523818,0.00031579517164962,-3.2815238095198e-05,-4.9500000000047e-05,-133.47809523879
29.990000000002,-4.9750000000047e-05,133.19238095247,0.00031608088593533,-3.3100952380912e-05,-4.9750000000047e-05,-133.19238095308
30.000000000002,-4.999999999995e-05,132.90666666687,0.00031636660022094,-3.3386666666515e-05,-4.999999999995e-05,-132.90666666748
30.010000000002,-4.9733333333283e-05,130.77333333353,0.00031636660022094,-3.3386666666515e-05,-4.9733333333283e-05,-130.77333333414
30.020000000002,-4.9466666666616e-05,128.6400000002,0.00031636660022094,-3.3386666666515e-05,-4.9466666666616e-05,-128.64000000081
30.030000000002,-4.9199999999949e-05,126.50666666687,0.00031636660022094,-3.3386666666515e-05,-4.9199999999949e-05,-126.50666666747
30.040000000002,-4.8933333333283e-05,124.37333333353,0.00031636660022094,-3.3386666666515e-05,-4.8933333333283e-05,-124.37333333414
30.050000000002,-4.8666666666616e-05,122.2400000002,0.00031636660022094,-3.3386666666515e-05,-4.8666666666616e-05,-122.24000000081
30.060000000002,-4.8399999999949e-05,120.10666666687,0.00031636660022094,-3.3386666666515e-05,-4.8399999999949e-05,-120.10666666747
30.070000000002,-4.8133333333283e-05,117.97333333353,0.00031636660022094,-3.3386666666515e-05,-4.8133333333283e-05,-117.97333333414
30.080000000002,-4.7866666666616e-05,115.8400000002,0.00031636660022094,-3.3386666666515e-05,-4.7866666666616e-05,-115.84000000081
30.090000000002,-4.7599999999949e-05,113.70666666686,0.00031636660022094,-3.3386666666515e-05,-4.7599999999949e-05,-113.70666666747
30.100000000002,-4.7333333333283e-05,111.57333333353,0.00031636660022094,-3.3386666666515e-05,-4.7333333333283e-05,-111.57333333414
30.110000000002,-4.7066666666616e-05,109.4400000002,0.00031636660022094,-3.3386666666515e-05,-4.7066666666616e-05,-109.44000000081
30.120000000002,-4.6799999999949e-05,107.30666666686,0.00031636660022094,-3.3386666666515e-05,-4.6799999999949e-05,-107.30666666747
30.130000000002,-4.6533333333282e-05,105.17333333353,0.00031636660022094,-3.3386666666515e-05,-4.6533333333282e-05,-105.17333333414
30.140000000002,-4.6266666666616e-05,103.0400000002,0.00031636660022094,-3.3386666666515e-05,-4.6266666666616e-05,-103.0400000008
30.150000000002,-4.5999999999949e-05,100.90666666686,0.00031636660022094,-3.3386666666515e-05,-4.5999999999949e-05,-100.90666666747
30.160000000002,-4.5733333333282e-05,98.773333333529,0.00031636660022094,-3.3386666666515e-05,-4.5733333333282e-05,-98.773333334137
30.170000000002,-4.5466666666616e-05,96.640000000195,0.00031636660022094,-3.3386666666515e-05,-4.5466666666616e-05,-96.640000000804
30.180000000002,-4.5199999999949e-05,94.506666666861,0.00031636660022094,-3.3386666666515e-05,-4.5199999999949e-05,-94.50666666747
30.190000000002,-4.4933333333282e-05,92.373333333528,0.00031636660022094,-3.3386666666515e-05,-4.4933333333282e-05,-92.373333334136
30.200000000002,-4.4666666666615e-05,90.240000000194,0.00031636660022094,-3.3386666666515e-05,-4.4666666666615e-05,-90.240000000803
30.210000000002,-4.4399999999949e-05,88.10666666686,0.00031636660022094,-3.3386666666515e-05,-4.4399999999949e-05,-88.106666667469
30.220000000002,-4.4133333333282e-05,85.973333333526,0.00031636660022094,-3.3386666666515e-05,-4.4133333333282e-05,-85.973333334135
30.230000000002,-4.3866666666615e-05,83.840000000193,0.00031636660022094,-3.3386666666515e-05,-4.3866666666615e-05,-83.840000000802
30.240000000002,-4.3599999999949e-05,81.706666666859,0.00031636660022094,-3.3386666666515e-05,-4.3599999999949e-05,-81.706666667468
30.250000000002,-4.3333333333282e-05,79.573333333525,0.00031636660022094,-3.3386666666515e-05,-4.3333333333282e-05,-79.573333334134
30.260000000002,-4.3066666666615e-05,77.440000000192,0.00031636660022094,-3.3386666666515e-05,-4.3066666666615e-05,-77.440000000801
30.270000000002,-4.2799999999948e-05,75.306666666858,0.00031636660022094,-3.3386666666515e-05,-4.2799999999948e-05,-75.306666667467
30.280000000002,-4.2533333333282e-05,73.173333333525,0.00031636660022094,-3.3386666666515e-05,-4.2533333333282e-05,-73.173333334133
30.290000000002,-4.2266666666615e-05,71.040000000191,0.00031636660022094,-3.3386666666515e-05,-4.2266666666615e-05,-71.0400000008
30.300000000002,-4.1999999999948e-05,68.906666666857,0.00031636660022094,-3.3386666666515e-05,-4.1999999999948e-05,-68.906666667466
30.310000000002,-4.1733333333282e-05,66.773333333524,0.00031636660022094,-3.3386666666515e-05,-4.1733333333282e-05,-66.773333334132
30.320000000002,-4.1466666666615e-05,64.64000000019,0.00031636660022094,-3.3386666666515e-05,-4.1466666666615e-05,-64.640000000799
30.330000000002,-4.1199999999948e-05,62.506666666856,0.00031636660022094,-3.3386666666515e-05,-4.1199999999948e-05,-62.506666667465
30.340000000002,-4.0933333333282e-05,60.373333333523,0.00031636660022094,-3.3386666666515e-05,-4.0933333333282e-05,-60.373333334131
30.350000000002,-4.0666666666615e-05,58.240000000189,0.00031636660022094,-3.3386666666515e-05,-4.0666666666615e-05,-58.240000000798
30.360000000002,-4.0399999999948e-05,56.106666666855,0.00031636660022094,-3.3386666666515e-05,-4.0399999999948e-05,-56.106666667464
30.370000000002,-4.0133333333281e-05,53.973333333521,0.00031636660022094,-3.3386666666515e-05,-4.0133333333281e-05,-53.97333333413
30.380000000002,-3.9866666666615e-05,51.840000000188,0.00031636660022094,-3.3386666666515e-05,-3.9866666666615e-05,-51.840000000797
30.390000000002,-3.9599999999948e-05,49.706666666854,0.00031636660022094,-3.3386666666515e-05,-3.9599999999948e-05,-49.706666667463
30.400000000002,-3.9333333333281e-05,47.573333333521,0.00031636660022094,-3.3386666666515e-05,-3.9333333333281e-05,-47.573333334129
30.410000000002,-3.9066666666615e-05,45.440000000187,0.00031636660022094,-3.3386666666515e-05,-3.9066666666615e-05,-45.440000000796
30.420000000002,-3.8799999999948e-05,43.306666666853,0.00031636660022094,-3.3386666666515e-05,-3.8799999999948e-05,-43.306666667462
30.430000000002,-3.8533333333281e-05,41.17333333352,0.00031636660022094,-3.3386666666515e-05,-3.8533333333281e-05,-41.173333334128
30.440000000002,-3.8266666666614e-05,39.040000000186,0.00031636660022094,-3.3386666666515e-05,-3.8266666666614e-05,-39.040000000795
30.450000000002,-3.7999999999948e-05,36.906666666852,0.00031636660022094,-3.3386666666515e-05,-3.7999999999948e-05,-36.906666667461
30.460000000002,-3.7733333333281e-05,34.773333333519,0.00031636660022094,-3.3386666666515e-05,-3.7733333333281e-05,-34.773333334127
30.470000000002,-3.7466666666614e-05,32.640000000185,0.00031636660022094,-3.3386666666515e-05,-3.7466666666614e-05,-32.640000000794
30.480000000002,-3.7199999999948e-05,30.506666666851,0.00031636660022094,-3.3386666666515e-05,-3.7199999999948e-05,-30.50666666746
30.490000000002,-3.6933333333281e-05,28.373333333518,0.00031636660022094,-3.3386666666515e-05,-3.6933333333281e-05,-28.373333334126
30.500000000002,-3.6666666666614e-05,26.240000000184,0.00031636660022094,-3.3386666666515e-05,-3.6666666666614e-05,-26.240000000793
30.510000000002,-3.6399999999947e-05,24.10666666685,0.00031636660022094,-3.3386666666515e-05,-3.6399999999947e-05,-24.106666667459
30.520000000002,-3.6133333333281e-05,21.973333333516,0.00031636660022094,-3.3386666666515e-05,-3.6133333333281e-05,-21.973333334125
30.530000000002,-3.5866666666614e-05,19.840000000183,0.00031636660022094,-3.3386666666515e-05,-3.5866666666614e-05,-19.840000000792
30.540000000002,-3.5599999999947e-05,17.706666666849,0.00031636660022094,-3.3386666666515e-05,-3.5599999999947e-05,-17.706666667458
30.550000000002,-3.5333333333281e-05,15.573333333516,0.00031636660022094,-3.3386666666515e-05,-3.5333333333281e-05,-15.573333334124
30.560000000002,-3.5066666666614e-05,13.440000000182,0.00031636660022094,-3.3386666666515e-05,-3.5066666666614e-05,-13.440000000791
30.570000000002,-3.4799999999947e-05,11.306666666848,0.00031636660022094,-3.3386666666515e-05,-3.4799999999947e-05,-11.306666667457
30.580000000002,-3.4533333333281e-05,9.1733333335145,0.00031636660022094,-3.3386666666515e-05,-3.4533333333281e-05,-9.1733333341232
30.590000000002,-3.4266666666614e-05,7.0400000001808,0.00031636660022094,-3.3386666666515e-05,-3.4266666666614e-05,-7.0400000007896
30.600000000002,-3.3999999999947e-05,4.9066666668472,0.00031636660022094,-3.3386666666515e-05,-3.3999999999947e-05,-4.906666667456
30.610000000002,-3.373333333328e-05,2.7733333335135,0.00031636660022094,-3.3386666666515e-05,-3.373333333328e-05,-2.7733333341223
30.620000000002,-3.3466666666614e-05,0.64000000017985,0.00031636660022094,-3.3386666666515e-05,-3.3466666666614e-05,-0.64000000078861
30.630000000002,-3.3199999999947e-05,1.4933333331538,0.00031636660022094,-3.3386666666515e-05,-3.3199999999947e-05,1.4933333325451
30.640000000002,-3.293333333328e-05,3.6266666664875,0.00031636660022094,-3.3386666666515e-05,-3.293333333328e-05,3.6266666658787
30.650000000002,-3.2666666666614e-05,5.7599999998212,0.00031636660022094,-3.3386666666515e-05,-3.2666666666614e-05,5.7599999992124
30.660000000002,-3.2399999999947e-05,7.8933333331548,0.00031636660022094,-3.3386666666515e-05,-3.2399999999947e-05,7.8933333325461
30.670000000002,-3.213333333328e-05,10.026666666489,0.00031636660022094,-3.3386666666515e-05,-3.213333333328e-05,10.02666666588
30.680000000002,-3.1866666666613e-05,12.159999999822,0.00031636660022094,-3.3386666666515e-05,-3.1866666666613e-05,12.159999999213
30.690000000002,-3.1599999999947e-05,14.293333333156,0.00031636660022094,-3.3386666666515e-05,-3.1599999999947e-05,14.293333332547
30.700000000002,-3.133333333328e-05,16.42666666649,0.00031636660022094,-3.3386666666515e-05,-3.133333333328e-05,16.426666665881
30.710000000002,-3.1066666666613e-05,18.559999999823,0.00031636660022094,-3.3386666666515e-05,-3.1066666666613e-05,18.559999999214
30.720000000002,-3.0799999999947e-05,20.693333333157,0.00031636660022094,-3.3386666666515e-05,-3.0799999999947e-05,20.693333332548
30.730000000002,-3.053333333328e-05,22.82666666649,0.00031636660022094,-3.3386666666515e-05,-3.053333333328e-05,22.826666665882
30.740000000002,-3.0266666666613e-05,24.959999999824,0.00031636660022094,-3.3386666666515e-05,-3.0266666666613e-05,24.959999999215
30.750000000002,-2.9999999999946e-05,27.093333333158,0.00031636660022094,-3.3386666666515e-05,-2.9999999999946e-05,27.093333332549
30.760000000002,-2.973333333328e-05,29.226666666492,0.00031636660022094,-3.3386666666515e-05,-2.973333333328e-05,29.226666665883
30.770000000002,-2.9466666666613e-05,31.359999999825,0.00031636660022094,-3.3386666666515e-05,-2.9466666666613e-05,31.359999999216
30.780000000002,-2.9199999999946e-05,33.493333333159,0.00031636660022094,-3.3386666666515e-05,-2.9199999999946e-05,33.49333333255
30.790000000002,-2.893333333328e-05,35.626666666493,0.00031636660022094,-3.3386666666515e-05,-2.893333333328e-05,35.626666665884
30.800000000002,-2.8666666666613e-05,37.759999999826,0.00031636660022094,-3.3386666666515e-05,-2.8666666666613e-05,37.759999999217
30.810000000002,-2.8399999999946e-05,39.89333333316,0.00031636660022094,-3.3386666666515e-05,-2.8399999999946e-05,39.893333332551
30.820000000002,-2.813333333328e-05,42.026666666493,0.00031636660022094,-3.3386666666515e-05,-2.813333333328e-05,42.026666665885
30.830000000002,-2.7866666666613e-05,44.159999999827,0.00031636660022094,-3.3386666666515e-05,-2.7866666666613e-05,44.159999999218
30.840000000002,-2.7599999999946e-05,46.293333333161,0.00031636660022094,-3.3386666666515e-05,-2.7599999999946e-05,46.293333332552
30.850000000002,-2.7333333333279e-05,48.426666666494,0.00031636660022094,-3.3386666666515e-05,-2.7333333333279e-05,48.426666665886
30.860000000002,-2.7066666666613e-05,50.559999999828,0.00031636660022094,-3.3386666666515e-05,-2.7066666666613e-05,50.559999999219
30.870000000002,-2.6799999999946e-05,52.693333333162,0.00031636660022094,-3.3386666666515e-05,-2.6799999999946e-05,52.693333332553
30.880000000002,-2.6533333333279e-05,54.826666666495,0.00031636660022094,-3.3386666666515e-05,-2.6533333333279e-05,54.826666665887
30.890000000002,-2.6266666666613e-05,56.959999999829,0.00031636660022094,-3.3386666666515e-05,-2.6266666666613e-05,56.95999999922
30.900000000002,-2.5999999999946e-05,59.093333333163,0.00031636660022094,-3.3386666666515e-05,-2.5999999999946e-05,59.093333332554
30.910000000002,-2.5733333333279e-05,61.226666666497,0.00031636660022094,-3.3386666666515e-05,-2.5733333333279e-05,61.226666665888
30.920000000002,-2.5466666666612e-05,63.35999999983,0.00031636660022094,-3.3386666666515e-05,-2.5466666666612e-05,63.359999999221
30.930000000002,-2.5199999999946e-05,65.493333333164,0.00031636660022094,-3.3386666666515e-05,-2.5199999999946e-05,65.493333332555
30.940000000002,-2.4933333333279e-05,67.626666666498,0.00031636660022094,-3.3386666666515e-05,-2.4933333333279e-05,67.626666665889
30.950000000002,-2.4666666666612e-05,69.759999999831,0.00031636660022094,-3.3386666666515e-05,-2.4666666666612e-05,69.759999999222
30.960000000002,-2.4399999999946e-05,71.893333333165,0.00031636660022094,-3.3386666666515e-05,-2.4399999999946e-05,71.893333332556
30.970000000002,-2.4133333333279e-05,74.026666666498,0.00031636660022094,-3.3386666666515e-05,-2.4133333333279e-05,74.02666666589
30.980000000002,-2.3866666666612e-05,76.159999999832,0.00031636660022094,-3.3386666666515e-05,-2.3866666666612e-05,76.159999999223
30.990000000002,-2.3599999999945e-05,78.293333333166,0.00031636660022094,-3.3386666666515e-05,-2.3599999999945e-05,78.293333332557
31.000000000002,-2.3333333333279e-05,80.4266666665,0.00031636660022094,-3.3386666666515e-05,-2.3333333333279e-05,80.426666665891
31.010000000002,-2.3066666666612e-05,82.559999999833,0.00031636660022094,-3.3386666666515e-05,-2.3066666666612e-05,82.559999999224
31.020000000002,-2.2799999999945e-05,84.693333333167,0.00031636660022094,-3.3386666666515e-05,-2.2799999999945e-05,84.693333332558
31.030000000002,-2.2533333333279e-05,86.826666666501,0.00031636660022094,-3.3386666666515e-05,-2.2533333333279e-05,86.826666665892
31.040000000002,-2.2266666666612e-05,88.959999999834,0.00031636660022094,-3.3386666666515e-05,-2.2266666666612e-05,88.959999999225
31.050000000002,-2.1999999999945e-05,91.093333333168,0.00031636660022094,-3.3386666666515e-05,-2.1999999999945e-05,91.093333332559
31.060000000002,-2.1733333333279e-05,92.121018826386,0.00031650480620085,-3.3248460686602e-05,-2.1733333333279e-05,92.12101882659
31.070000000002,-2.1466666666612e-05,92.26985603568,0.00031675286821634,-3.3000398671113e-05,-2.1466666666612e-05,92.269856036012
31.080000000002,-2.1199999999945e-05,92.418693244982,0.00031700093023184,-3.2752336655609e-05,-2.1199999999945e-05,92.418693245315
31.090000000002,-2.0933333333278e-05,92.567530454284,0.00031724899224735,-3.2504274640105e-05,-2.0933333333278e-05,92.567530454617
31.100000000002,-2.0666666666612e-05,92.716367663587,0.00031749705426285,-3.2256212624601e-05,-2.0666666666612e-05,92.716367663919
31.110000000002,-2.0399999999945e-05,92.865204872889,0.00031774511627835,-3.2008150609098e-05,-2.0399999999945e-05,92.865204873222
31.120000000002,-2.0133333333278e-05,93.014042082191,0.00031799317829386,-3.1760088593594e-05,-2.0133333333278e-05,93.014042082524
31.130000000002,-1.9866666666612e-05,93.162879291494,0.00031824124030936,-3.151202657809e-05,-1.9866666666612e-05,93.162879291826
31.140000000002,-1.9599999999945e-05,93.311716500796,0.00031848930232487,-3.1263964562586e-05,-1.9599999999945e-05,93.311716501129
31.150000000002,-1.9333333333278e-05,93.460553710099,0.00031873736434037,-3.1015902547082e-05,-1.9333333333278e-05,93.460553710431
31.160000000002,-1.9066666666611e-05,93.609390919401,0.00031898542635587,-3.0767840531578e-05,-1.9066666666611e-05,93.609390919733
31.170000000002,-1.8799999999945e-05,93.758228128703,0.00031923348837138,-3.0519778516074e-05,-1.8799999999945e-05,93.758228129036
31.180000000002,-1.8533333333278e-05,93.907065338006,0.00031948155038688,-3.027171650057e-05,-1.8533333333278e-05,93.907065338338
31.190000000002,-1.8266666666611e-05,94.055902547308,0.00031972961240239,-3.0023654485066e-05,-1.8266666666611e-05,94.055902547641
31.200000000002,-1.7999999999945e-05,94.20473975661,0.00031997767441789,-2.9775592469562e-05,-1.7999999999945e-05,94.204739756943
31.210000000002,-1.7733333333278e-05,94.353576965913,0.00032022573643339,-2.9527530454058e-05,-1.7733333333278e-05,94.353576966245
31.220000000002,-1.7466666666611e-05,94.502414175215,0.0003204737984489,-2.9279468438555e-05,-1.7466666666611e-05,94.502414175548
31.230000000002,-1.7199999999944e-05,94.651251384517,0.0003207218604644,-2.9031406423051e-05,-1.7199999999944e-05,94.65125138485
31.240000000002,-1.6933333333278e-05,94.80008859382,0.00032096992247991,-2.8783344407547e-05,-1.6933333333278e-05,94.800088594152
31.250000000002,-1.6666666666611e-05,94.948925803122,0.00032121798449541,-2.8535282392043e-05,-1.6666666666611e-05,94.948925803455
31.260000000002,-1.6399999999944e-05,95.097763012424,0.00032146604651091,-2.8287220376539e-05,-1.6399999999944e-05,95.097763012757
31.270000000002,-1.6133333333278e-05,95.246600221727,0.00032171410852642,-2.8039158361035e-05,-1.6133333333278e-05,95.246600222059
31.280000000002,-1.5866666666611e-05,95.395437431029,0.00032196217054192,-2.7791096345531e-05,-1.5866666666611e-05,95.395437431362
31.290000000002,-1.5599999999944e-05,95.544274640331,0.00032221023255743,-2.7543034330027e-05,-1.5599999999944e-05,95.544274640664
31.300000000002,-1.5333333333278e-05,95.693111849634,0.00032245829457293,-2.7294972314523e-05,-1.5333333333278e-05,95.693111849966
31.310000000002,-1.5066666666611e-05,95.841949058936,0.00032270635658843,-2.7046910299019e-05,-1.5066666666611e-05,95.841949059269
31.320000000002,-1.4799999999944e-05,95.990786268238,0.00032295441860394,-2.6798848283515e-05,-1.4799999999944e-05,95.990786268571
31.330000000002,-1.4533333333277e-05,96.139623477541,0.00032320248061944,-2.6550786268011e-05,-1.4533333333277e-05,96.139623477873
31.340000000002,-1.4266666666611e-05,96.288460686843,0.00032345054263494,-2.6302724252508e-05,-1.4266666666611e-05,96.288460687176
31.350000000002,-1.3999999999944e-05,96.437297896145,0.00032369860465045,-2.6054662237004e-05,-1.3999999999944e-05,96.437297896478
31.360000000002,-1.3733333333277e-05,96.586135105448,0.00032394666666595,-2.58066002215e-05,-1.3733333333277e-05,96.58613510578
31.370000000002,-1.3466666666611e-05,96.73497231475,0.00032419472868146,-2.5558538205996e-05,-1.3466666666611e-05,96.734972315083
31.380000000002,-1.3199999999944e-05,96.883809524053,0.00032444279069696,-2.5310476190492e-05,-1.3199999999944e-05,96.883809524385
31.390000000002,-1.2933333333277e-05,97.032646733355,0.00032469085271246,-2.5062414174988e-05,-1.2933333333277e-05,97.032646733687
31.400000000002,-1.266666666661e-05,97.181483942657,0.00032493891472797,-2.4814352159484e-05,-1.266666666661e-05,97.18148394299
31.410000000002,-1.2399999999944e-05,97.33032115196,0.00032518697674347,-2.456629014398e-05,-1.2399999999944e-05,97.330321152292
31.420000000002,-1.2133333333277e-05,97.479158361262,0.00032543503875898,-2.4318228128476e-05,-1.2133333333277e-05,97.479158361595
31.430000000002,-1.186666666661e-05,97.627995570564,0.00032568310077448,-2.4070166112972e-05,-1.186666666661e-05,97.627995570897
31.440000000002,-1.1599999999944e-05,97.776832779867,0.00032593116278998,-2.3822104097468e-05,-1.1599999999944e-05,97.776832780199
31.450000000002,-1.1333333333277e-05,97.925669989169,0.00032617922480549,-2.3574042081964e-05,-1.1333333333277e-05,97.925669989502
31.460000000002,-1.106666666661e-05,98.074507198471,0.00032642728682099,-2.3325980066461e-05,-1.106666666661e-05,98.074507198804
31.470000000002,-1.0799999999943e-05,98.223344407774,0.0003266753488365,-2.3077918050957e-05,-1.0799999999943e-05,98.223344408106
31.480000000002,-1.0533333333277e-05,98.372181617076,0.000326923410852,-2.2829856035453e-05,-1.0533333333277e-05,98.372181617409
31.490000000002,-1.026666666661e-05,98.521018826378,0.0003271714728675,-2.2581794019949e-05,-1.026666666661e-05,98.521018826711
31.500000000002,-9.9999999999433e-06,98.669856035681,0.00032741953488301,-2.2333732004445e-05,-9.9999999999433e-06,98.669856036013
31.510000000002,-9.7333333332766e-06,98.818693244983,0.00032766759689851,-2.2085669988941e-05,-9.7333333332766e-06,98.818693245316
31.520000000002,-9.4666666666099e-06,98.967530454285,0.00032791565891402,-2.1837607973437e-05,-9.4666666666099e-06,98.967530454618
31.530000000002,-9.1999999999432e-06,99.116367663588,0.00032816372092952,-2.1589545957933e-05,-9.1999999999432e-06,99.11636766392
31.540000000002,-8.9333333332765e-06,99.26520487289,0.00032841178294502,-2.1341483942429e-05,-8.9333333332765e-06,99.265204873223
31.550000000002,-8.6666666666098e-06,99.414042082192,0.00032865984496053,-2.1093421926925e-05,-8.6666666666098e-06,99.414042082525
31.560000000002,-8.3999999999431e-06,99.562879291495,0.00032890790697603,-2.0845359911421e-05,-8.3999999999431e-06,99.562879291827
31.570000000002,-8.1333333332764e-06,99.711716500797,0.00032915596899153,-2.0597297895917e-05,-8.1333333332764e-06,99.71171650113
31.580000000002,-7.8666666666097e-06,99.8605537101,0.00032940403100704,-2.0349235880414e-05,-7.8666666666097e-06,99.860553710432
31.590000000002,-7.599999999943e-06,100.0093909194,0.00032965209302254,-2.010117386491e-05,-7.599999999943e-06,100.00939091973
31.600000000002,-7.3333333332763e-06,100.1582281287,0.00032990015503805,-1.9853111849406e-05,-7.3333333332763e-06,100.15822812904
31.610000000002,-7.0666666666096e-06,100.30706533801,0.00033014821705355,-1.9605049833902e-05,-7.0666666666096e-06,100.30706533834
31.620000000002,-6.7999999999428e-06,100.45590254731,0.00033039627906905,-1.9356987818398e-05,-6.7999999999428e-06,100.45590254764
31.630000000002,-6.5333333332761e-06,100.60473975661,0.00033064434108456,-1.9108925802894e-05,-6.5333333332761e-06,100.60473975694
31.640000000002,-6.2666666666094e-06,100.75357696591,0.00033089240310006,-1.886086378739e-05,-6.2666666666094e-06,100.75357696625
31.650000000002,-5.9999999999427e-06,100.90241417522,0.00033114046511557,-1.8612801771886e-05,-5.9999999999427e-06,100.90241417555
31.660000000002,-5.733333333276e-06,101.05125138452,0.00033138852713107,-1.8364739756382e-05,-5.733333333276e-06,101.05125138485
31.670000000002,-5.4666666666093e-06,101.20008859382,0.00033163658914657,-1.8116677740878e-05,-5.4666666666093e-06,101.20008859415
31.680000000002,-5.1999999999426e-06,101.34892580312,0.00033188465116208,-1.7868615725374e-05,-5.1999999999426e-06,101.34892580346
31.690000000002,-4.9333333332759e-06,101.49776301243,0.00033213271317758,-1.7620553709871e-05,-4.9333333332759e-06,101.49776301276
31.700000000002,-4.6666666666092e-06,101.64660022173,0.00033238077519309,-1.7372491694367e-05,-4.6666666666092e-06,101.64660022206
31.710000000002,-4.3999999999425e-06,101.79543743103,0.00033262883720859,-1.7124429678863e-05,-4.3999999999425e-06,101.79543743136
31.720000000002,-4.1333333332758e-06,101.94427464033,0.00033287689922409,-1.6876367663359e-05,-4.1333333332758e-06,101.94427464067
31.730000000002,-3.866666666609e-06,102.09311184963,0.0003331249612396,-1.6628305647855e-05,-3.866666666609e-06,102.09311184997
31.740000000002,-3.5999999999423e-06,102.24194905894,0.0003333730232551,-1.6380243632351e-05,-3.5999999999423e-06,102.24194905927
31.750000000002,-3.3333333332756e-06,102.39078626824,0.00033362108527061,-1.6132181616847e-05,-3.3333333332756e-06,102.39078626857
31.760000000002,-3.0666666666089e-06,102.53962347754,0.00033386914728611,-1.5884119601343e-05,-3.0666666666089e-06,102.53962347787
31.770000000002,-2.7999999999422e-06,102.68846068684,0.00033411720930161,-1.5636057585839e-05,-2.7999999999422e-06,102.68846068718
31.780000000002,-2.5333333332755e-06,102.83729789615,0.00033436527131712,-1.5387995570335e-05,-2.5333333332755e-06,102.83729789648
31.790000000002,-2.2666666666088e-06,102.98613510545,0.00033461333333262,-1.5139933554831e-05,-2.2666666666088e-06,102.98613510578
31.800000000002,-1.9999999999421e-06,103.13497231475,0.00033486139534812,-1.4891871539327e-05,-1.9999999999421e-06,103.13497231508
31.810000000002,-1.7333333332754e-06,103.28380952405,0.00033510945736363,-1.4643809523824e-05,-1.7333333332754e-06,103.28380952439
31.820000000002,-1.4666666666087e-06,103.43264673336,0.00033535751937913,-1.439574750832e-05,-1.4666666666087e-06,103.43264673369
31.830000000002,-1.199999999942e-06,103.58148394266,0.00033560558139464,-1.4147685492816e-05,-1.199999999942e-06,103.58148394299
31.840000000002,-9.3333333327526e-07,103.73032115196,0.00033585364341014,-1.3899623477312e-05,-9.3333333327526e-07,103.73032115229
31.850000000002,-6.6666666660855e-07,103.87915836126,0.00033610170542564,-1.3651561461808e-05,-6.6666666660855e-07,103.8791583616
31.860000000002,-3.9999999994184e-07,104.02799557057,0.00033634976744115,-1.3403499446304e-05,-3.9999999994184e-07,104.0279955709
31.870000000002,-1.3333333327514e-07,104.17683277987,0.00033659782945665,-1.31554374308e-05,-1.3333333327514e-07,104.1768327802
31.880000000002,1.3333333339157e-07,104.32566998917,0.00033684589147216,-1.2907375415296e-05,1.3333333339157e-07,104.3256699895
31.890000000002,4.0000000005828e-07,104.47450719847,0.00033709395348766,-1.2659313399792e-05,4.0000000005828e-07,104.4745071988
31.900000000002,6.6666666672499e-07,104.62334440777,0.00033734201550316,-1.2411251384288e-05,6.6666666672499e-07,104.62334440811
31.910000000002,9.333333333917e-07,104.77218161708,0.00033759007751867,-1.2163189368784e-05,9.333333333917e-07,104.77218161741
31.920000000002,1.2000000000584e-06,104.92101882638,0.00033783813953417,-1.191512735328e-05,1.2000000000584e-06,104.92101882671
31.930000000002,1.4666666667251e-06,105.06985603568,0.00033808620154968,-1.1667065337777e-05,1.4666666667251e-06,105.06985603601
31.940000000002,1.7333333333918e-06,105.21869324498,0.00033833426356518,-1.1419003322273e-05,1.7333333333918e-06,105.21869324532
31.950000000002,2.0000000000585e-06,105.36753045429,0.00033858232558068,-1.1170941306769e-05,2.0000000000585e-06,105.36753045462
31.960000000002,2.2666666667252e-06,105.51636766359,0.00033883038759619,-1.0922879291265e-05,2.2666666667252e-06,105.51636766392
31.970000000002,2.5333333333919e-06,105.66520487289,0.00033907844961169,-1.0674817275761e-05,2.5333333333919e-06,105.66520487322
31.980000000002,2.8000000000587e-06,105.81404208219,0.0003393265116272,-1.0426755260257e-05,2.8000000000587e-06,105.81404208253
31.990000000002,3.0666666667254e-06,105.9628792915,0.0003395745736427,-1.0178693244753e-05,3.0666666667254e-06,105.96287929183
32.000000000002,3.3333333333921e-06,106.1117165008,0.0003398226356582,-9.9306312292492e-06,3.3333333333921e-06,106.11171650113
32.010000000002,3.6000000000587e-06,106.2605537101,0.00034007069767371,-9.6825692137453e-06,3.6000000000587e-06,106.26055371043
32.020000000002,3.8666666667253e-06,106.4093909194,0.00034031875968921,-9.4345071982415e-06,3.8666666667253e-06,106.40939091974
32.030000000002,4.1333333333919e-06,106.55822812871,0.00034056682170471,-9.1864451827377e-06,4.1333333333919e-06,106.55822812904
32.040000000002,4.4000000000585e-06,106.70706533801,0.00034081488372022,-8.9383831672338e-06,4.4000000000585e-06,106.70706533834
32.050000000002,4.6666666667251e-06,106.85590254731,0.00034106294573572,-8.69032115173e-06,4.6666666667251e-06,106.85590254764
32.060000000002,4.9333333333918e-06,107.00473975661,0.00034131100775123,-8.4422591362262e-06,4.9333333333918e-06,107.00473975694
32.070000000002,5.2000000000584e-06,107.15357696591,0.00034155906976673,-8.1941971207224e-06,5.2000000000584e-06,107.15357696625
32.080000000002,5.466666666725e-06,107.30241417522,0.00034180713178223,-7.9461351052186e-06,5.466666666725e-06,107.30241417555
32.090000000002,5.7333333333916e-06,107.45125138452,0.00034205519379774,-7.6980730897147e-06,5.7333333333916e-06,107.45125138485
32.100000000002,6.0000000000582e-06,107.60008859382,0.00034230325581324,-7.4500110742109e-06,6.0000000000582e-06,107.60008859415
32.110000000002,6.2666666667248e-06,107.74892580312,0.00034255131782875,-7.2019490587071e-06,6.2666666667248e-06,107.74892580346
32.120000000002,6.5333333333914e-06,107.89776301243,0.00034279937984425,-6.9538870432032e-06,6.5333333333914e-06,107.89776301276
32.130000000002,6.8000000000581e-06,108.04660022173,0.00034304744185975,-6.7058250276994e-06,6.8000000000581e-06,108.04660022206
32.140000000002,7.0666666667247e-06,108.19543743103,0.00034329550387526,-6.4577630121956e-06,7.0666666667247e-06,108.19543743136
32.150000000002,7.3333333333913e-06,108.34427464033,0.00034354356589076,-6.2097009966918e-06,7.3333333333913e-06,108.34427464067
32.160000000002,7.6000000000579e-06,108.49311184963,0.00034379162790626,-5.9616389811879e-06,7.6000000000579e-06,108.49311184997
32.170000000002,7.8666666667245e-06,108.64194905894,0.00034403968992177,-5.7135769656841e-06,7.8666666667245e-06,108.64194905927
32.180000000002,8.1333333333911e-06,108.79078626824,0.00034428775193727,-5.4655149501803e-06,8.1333333333911e-06,108.79078626857
32.190000000002,8.4000000000577e-06,108.93962347754,0.00034453581395278,-5.2174529346764e-06,8.4000000000577e-06,108.93962347787
32.200000000002,8.6666666667243e-06,109.08846068684,0.00034478387596828,-4.9693909191726e-06,8.6666666667243e-06,109.08846068718
32.210000000002,8.933333333391e-06,109.23729789615,0.00034503193798378,-4.7213289036688e-06,8.933333333391e-06,109.23729789648
32.220000000002,9.2000000000576e-06,109.38613510545,0.00034527999999929,-4.473266888165e-06,9.2000000000576e-06,109.38613510578
32.230000000002,9.4666666667242e-06,109.53497231475,0.00034552806201479,-4.2252048726611e-06,9.4666666667242e-06,109.53497231508
32.240000000002,9.7333333333908e-06,109.68380952405,0.0003457761240303,-3.9771428571573e-06,9.7333333333908e-06,109.68380952439
32.250000000002,1.0000000000057e-05,109.83264673336,0.0003460241860458,-3.7290808416535e-06,1.0000000000057e-05,109.83264673369
32.260000000002,1.0266666666724e-05,109.98148394266,0.0003462722480613,-3.4810188261497e-06,1.0266666666724e-05,109.98148394299
32.270000000002,1.0533333333391e-05,110.13032115196,0.00034652031007681,-3.2329568106458e-06,1.0533333333391e-05,110.13032115229
32.280000000002,1.0800000000057e-05,110.27915836126,0.00034676837209231,-2.984894795142e-06,1.0800000000057e-05,110.2791583616
32.290000000002,1.1066666666724e-05,110.42799557056,0.00034701643410781,-2.7368327796382e-06,1.1066666666724e-05,110.4279955709
32.300000000002,1.133333333339e-05,110.57683277987,0.00034726449612332,-2.4887707641344e-06,1.133333333339e-05,110.5768327802
32.310000000002,1.1600000000057e-05,110.72566998917,0.00034751255813882,-2.2407087486305e-06,1.1600000000057e-05,110.7256699895
32.320000000002,1.1866666666724e-05,110.87450719847,0.00034776062015433,-1.9926467331267e-06,1.1866666666724e-05,110.8745071988
32.330000000002,1.213333333339e-05,111.02334440777,0.00034800868216983,-1.7445847176229e-06,1.213333333339e-05,111.02334440811
32.340000000002,1.2400000000057e-05,111.17218161708,0.00034825674418533,-1.4965227021191e-06,1.2400000000057e-05,111.17218161741
32.350000000002,1.2666666666724e-05,111.32101882638,0.00034850480620084,-1.2484606866152e-06,1.2666666666724e-05,111.32101882671
32.360000000002,1.293333333339e-05,111.46985603568,0.00034875286821634,-1.0003986711114e-06,1.293333333339e-05,111.46985603601
32.370000000002,1.3200000000057e-05,111.61869324498,0.00034900093023184,-7.5233665560757e-07,1.3200000000057e-05,111.61869324532
32.380000000002,1.3466666666723e-05,111.76753045429,0.00034924899224735,-5.0427464010375e-07,1.3466666666723e-05,111.76753045462
32.390000000002,1.373333333339e-05,111.91636766359,0.00034949705426285,-2.5621262459992e-07,1.373333333339e-05,111.91636766392
32.400000000002,1.4000000000057e-05,112.06520487289,0.00034974511627836,-8.1506090960916e-09,1.4000000000057e-05,112.06520487322
32.410000000002,1.4266666666723e-05,112.21404208219,0.00034999317829386,2.3991140640774e-07,1.4266666666723e-05,112.21404208252
32.420000000002,1.453333333339e-05,112.36287929149,0.00035024124030936,4.8797342191157e-07,1.453333333339e-05,112.36287929183
32.430000000002,1.4800000000056e-05,112.5117165008,0.00035048930232487,7.3603543741539e-07,1.4800000000056e-05,112.51171650113
32.440000000002,1.5066666666723e-05,112.6605537101,0.00035073736434037,9.8409745291922e-07,1.5066666666723e-05,112.66055371043
32.450000000002,1.533333333339e-05,112.8093909194,0.00035098542635588,1.232159468423e-06,1.533333333339e-05,112.80939091973
32.460000000002,1.5600000000056e-05,112.9582281287,0.00035123348837138,1.4802214839269e-06,1.5600000000056e-05,112.95822812904
32.470000000002,1.5866666666723e-05,113.10706533801,0.00035148155038688,1.7282834994307e-06,1.5866666666723e-05,113.10706533834
32.480000000002,1.613333333339e-05,113.25590254731,0.00035172961240239,1.9763455149345e-06,1.613333333339e-05,113.25590254764
32.490000000002,1.6400000000056e-05,113.40473975661,0.00035197767441789,2.2244075304383e-06,1.6400000000056e-05,113.40473975694
32.500000000002,1.6666666666723e-05,113.55357696591,0.00035222573643339,2.4724695459422e-06,1.6666666666723e-05,113.55357696625
32.510000000002,1.6933333333389e-05,113.70241417522,0.0003524737984489,2.720531561446e-06,1.6933333333389e-05,113.70241417555
32.520000000002,1.7200000000056e-05,113.85125138452,0.0003527218604644,2.9685935769498e-06,1.7200000000056e-05,113.85125138485
32.530000000002,1.7466666666723e-05,114.00008859382,0.00035296992247991,3.2166555924537e-06,1.7466666666723e-05,114.00008859415
32.540000000002,1.7733333333389e-05,114.14892580312,0.00035321798449541,3.4647176079575e-06,1.7733333333389e-05,114.14892580345
32.550000000002,1.8000000000056e-05,114.29776301242,0.00035346604651091,3.7127796234613e-06,1.8000000000056e-05,114.29776301276
32.560000000002,1.8266666666722e-05,114.44660022173,0.00035371410852642,3.9608416389651e-06,1.8266666666722e-05,114.44660022206
32.570000000002,1.8533333333389e-05,114.59543743103,0.00035396217054192,4.208903654469e-06,1.8533333333389e-05,114.59543743136
32.580000000002,1.8800000000056e-05,114.74427464033,0.00035421023255743,4.4569656699728e-06,1.8800000000056e-05,114.74427464066
32.590000000002,1.9066666666722e-05,114.89311184963,0.00035445829457293,4.7050276854766e-06,1.9066666666722e-05,114.89311184997
32.600000000002,1.9333333333389e-05,115.04194905894,0.00035470635658843,4.9530897009804e-06,1.9333333333389e-05,115.04194905927
32.610000000002,1.9600000000056e-05,115.19078626824,0.00035495441860394,5.2011517164843e-06,1.9600000000056e-05,115.19078626857
32.620000000002,1.9866666666722e-05,115.33962347754,0.00035520248061944,5.4492137319881e-06,1.9866666666722e-05,115.33962347787
32.630000000002,2.0133333333389e-05,115.48846068684,0.00035545054263494,5.6972757474919e-06,2.0133333333389e-05,115.48846068718
32.640000000002,2.0400000000055e-05,115.63729789615,0.00035569860465045,5.9453377629958e-06,2.0400000000055e-05,115.63729789648
32.650000000002,2.0666666666722e-05,115.78613510545,0.00035594666666595,6.1933997784996e-06,2.0666666666722e-05,115.78613510578
32.660000000002,2.0933333333389e-05,115.93497231475,0.00035619472868146,6.4414617940034e-06,2.0933333333389e-05,115.93497231508
32.670000000002,2.1200000000055e-05,116.08380952405,0.00035644279069696,6.6895238095072e-06,2.1200000000055e-05,116.08380952438
32.680000000002,2.1466666666722e-05,116.23264673335,0.00035669085271246,6.9375858250111e-06,2.1466666666722e-05,116.23264673369
32.690000000002,2.1733333333388e-05,116.38148394266,0.00035693891472797,7.1856478405149e-06,2.1733333333388e-05,116.38148394299
32.700000000002,2.2000000000055e-05,116.53032115196,0.00035718697674347,7.4337098560187e-06,2.2000000000055e-05,116.53032115229
32.710000000002,2.2266666666722e-05,116.67915836126,0.00035743503875898,7.6817718715225e-06,2.2266666666722e-05,116.67915836159
32.720000000002,2.2533333333388e-05,116.82799557056,0.00035768310077448,7.9298338870264e-06,2.2533333333388e-05,116.8279955709
32.730000000002,2.2800000000055e-05,116.97683277987,0.00035793116278998,8.1778959025302e-06,2.2800000000055e-05,116.9768327802
32.740000000002,2.3066666666721e-05,117.12566998917,0.00035817922480549,8.425957918034e-06,2.3066666666721e-05,117.1256699895
32.750000000002,2.3333333333388e-05,117.27450719847,0.00035842728682099,8.6740199335378e-06,2.3333333333388e-05,117.2745071988
32.760000000002,2.3600000000055e-05,117.42334440777,0.00035867534883649,8.9220819490417e-06,2.3600000000055e-05,117.42334440811
32.770000000002,2.3866666666721e-05,117.57218161707,0.000358923410852,9.1701439645455e-06,2.3866666666721e-05,117.57218161741
32.780000000002,2.4133333333388e-05,117.72101882638,0.0003591714728675,9.4182059800493e-06,2.4133333333388e-05,117.72101882671
32.790000000002,2.4400000000055e-05,117.86985603568,0.00035941953488301,9.6662679955532e-06,2.4400000000055e-05,117.86985603601
32.800000000002,2.4666666666721e-05,118.01869324498,0.00035966759689851,9.914330011057e-06,2.4666666666721e-05,118.01869324531
32.810000000002,2.4933333333388e-05,118.16753045428,0.00035991565891401,1.0162392026561e-05,2.4933333333388e-05,118.16753045462
32.820000000002,2.5200000000054e-05,118.31636766359,0.00036016372092952,1.0410454042065e-05,2.5200000000054e-05,118.31636766392
32.830000000002,2.5466666666721e-05,118.46520487289,0.00036041178294502,1.0658516057568e-05,2.5466666666721e-05,118.46520487322
32.840000000002,2.5733333333388e-05,118.61404208219,0.00036065984496052,1.0906578073072e-05,2.5733333333388e-05,118.61404208252
32.850000000002,2.6000000000054e-05,118.76287929149,0.00036090790697603,1.1154640088576e-05,2.6000000000054e-05,118.76287929183
32.860000000002,2.6266666666721e-05,118.9117165008,0.00036115596899153,1.140270210408e-05,2.6266666666721e-05,118.91171650113
32.870000000002,2.6533333333387e-05,119.0605537101,0.00036140403100704,1.1650764119584e-05,2.6533333333387e-05,119.06055371043
32.880000000002,2.6800000000054e-05,119.2093909194,0.00036165209302254,1.1898826135088e-05,2.6800000000054e-05,119.20939091973
32.890000000002,2.7066666666721e-05,119.3582281287,0.00036190015503804,1.2146888150591e-05,2.7066666666721e-05,119.35822812904
32.900000000002,2.7333333333387e-05,119.507065338,0.00036214821705355,1.2394950166095e-05,2.7333333333387e-05,119.50706533834
32.910000000002,2.7600000000054e-05,119.65590254731,0.00036239627906905,1.2643012181599e-05,2.7600000000054e-05,119.65590254764
32.920000000002,2.7866666666721e-05,119.80473975661,0.00036264434108456,1.2891074197103e-05,2.7866666666721e-05,119.80473975694
32.930000000002,2.8133333333387e-05,119.95357696591,0.00036289240310006,1.3139136212607e-05,2.8133333333387e-05,119.95357696624
32.940000000002,2.8400000000054e-05,120.10241417521,0.00036314046511556,1.3387198228111e-05,2.8400000000054e-05,120.10241417555
32.950000000002,2.866666666672e-05,120.25125138452,0.00036338852713107,1.3635260243614e-05,2.866666666672e-05,120.25125138485
32.960000000002,2.8933333333387e-05,120.40008859382,0.00036363658914657,1.3883322259118e-05,2.8933333333387e-05,120.40008859415
32.970000000002,2.9200000000054e-05,120.54892580312,0.00036388465116207,1.4131384274622e-05,2.9200000000054e-05,120.54892580345
32.980000000002,2.946666666672e-05,120.69776301242,0.00036413271317758,1.4379446290126e-05,2.946666666672e-05,120.69776301276
32.990000000002,2.9733333333387e-05,120.84660022173,0.00036438077519308,1.462750830563e-05,2.9733333333387e-05,120.84660022206
33.000000000002,3.0000000000053e-05,120.99543743103,0.00036462883720859,1.4875570321134e-05,3.0000000000053e-05,120.99543743136
33.010000000002,3.026666666672e-05,121.14427464033,0.00036487689922409,1.5123632336637e-05,3.026666666672e-05,121.14427464066
33.020000000002,3.0533333333387e-05,121.29311184963,0.00036512496123959,1.5371694352141e-05,3.0533333333387e-05,121.29311184996
33.030000000002,3.0800000000053e-05,121.44194905893,0.0003653730232551,1.5619756367645e-05,3.0800000000053e-05,121.44194905927
33.040000000002,3.106666666672e-05,121.59078626824,0.0003656210852706,1.5867818383149e-05,3.106666666672e-05,121.59078626857
33.050000000002,3.1333333333387e-05,121.73962347754,0.00036586914728611,1.6115880398653e-05,3.1333333333387e-05,121.73962347787
33.060000000002,3.1600000000053e-05,121.88846068684,0.00036611720930161,1.6363942414156e-05,3.1600000000053e-05,121.88846068717
33.070000000002,3.186666666672e-05,122.03729789614,0.00036636527131711,1.661200442966e-05,3.186666666672e-05,122.03729789648
33.080000000002,3.2133333333386e-05,122.18613510545,0.00036661333333262,1.6860066445164e-05,3.2133333333386e-05,122.18613510578
33.090000000002,3.2400000000053e-05,122.33497231475,0.00036686139534812,1.7108128460668e-05,3.2400000000053e-05,122.33497231508
33.100000000002,3.266666666672e-05,122.48380952405,0.00036710945736362,1.7356190476172e-05,3.266666666672e-05,122.48380952438
33.110000000002,3.2933333333386e-05,122.63264673335,0.00036735751937913,1.7604252491676e-05,3.2933333333386e-05,122.63264673369
33.120000000002,3.3200000000053e-05,122.78148394266,0.00036760558139463,1.7852314507179e-05,3.3200000000053e-05,122.78148394299
33.130000000002,3.3466666666719e-05,122.93032115196,0.00036785364341014,1.8100376522683e-05,3.3466666666719e-05,122.93032115229
33.140000000002,3.3733333333386e-05,123.07915836126,0.00036810170542564,1.8348438538187e-05,3.3733333333386e-05,123.07915836159
33.150000000002,3.4000000000053e-05,123.22799557056,0.00036834976744114,1.8596500553691e-05,3.4000000000053e-05,123.22799557089
33.160000000002,3.4266666666719e-05,123.37683277986,0.00036859782945665,1.8844562569195e-05,3.4266666666719e-05,123.3768327802
33.170000000002,3.4533333333386e-05,123.52566998917,0.00036884589147215,1.9092624584699e-05,3.4533333333386e-05,123.5256699895
33.180000000002,3.4800000000052e-05,123.67450719847,0.00036909395348765,1.9340686600202e-05,3.4800000000052e-05,123.6745071988
33.190000000002,3.5066666666719e-05,123.82334440777,0.00036934201550316,1.9588748615706e-05,3.5066666666719e-05,123.8233444081
33.200000000002,3.5333333333386e-05,123.97218161707,0.00036959007751866,1.983681063121e-05,3.5333333333386e-05,123.97218161741
33.210000000002,3.5600000000052e-05,124.12101882638,0.00036983813953417,2.0084872646714e-05,3.5600000000052e-05,124.12101882671
33.220000000002,3.5866666666719e-05,124.26985603568,0.00037008620154967,2.0332934662218e-05,3.5866666666719e-05,124.26985603601
33.230000000002,3.6133333333386e-05,124.41869324498,0.00037033426356517,2.0580996677722e-05,3.6133333333386e-05,124.41869324531
33.240000000002,3.6400000000052e-05,124.56753045428,0.00037058232558068,2.0829058693225e-05,3.6400000000052e-05,124.56753045462
33.250000000002,3.6666666666719e-05,124.71636766359,0.00037083038759618,2.1077120708729e-05,3.6666666666719e-05,124.71636766392
33.260000000002,3.6933333333385e-05,124.86520487289,0.00037107844961169,2.1325182724233e-05,3.6933333333385e-05,124.86520487322
33.270000000002,3.7200000000052e-05,125.01404208219,0.00037132651162719,2.1573244739737e-05,3.7200000000052e-05,125.01404208252
33.280000000002,3.7466666666719e-05,125.16287929149,0.00037157457364269,2.1821306755241e-05,3.7466666666719e-05,125.16287929182
33.290000000002,3.7733333333385e-05,125.31171650079,0.0003718226356582,2.2069368770744e-05,3.7733333333385e-05,125.31171650113
33.300000000002,3.8000000000052e-05,125.4605537101,0.0003720706976737,2.2317430786248e-05,3.8000000000052e-05,125.46055371043
33.310000000002,3.8266666666718e-05,125.6093909194,0.0003723187596892,2.2565492801752e-05,3.8266666666718e-05,125.60939091973
33.320000000002,3.8533333333385e-05,125.7582281287,0.00037256682170471,2.2813554817256e-05,3.8533333333385e-05,125.75822812903
33.330000000002,3.8800000000052e-05,125.907065338,0.00037281488372021,2.306161683276e-05,3.8800000000052e-05,125.90706533834
33.340000000002,3.9066666666718e-05,126.05590254731,0.00037306294573572,2.3309678848264e-05,3.9066666666718e-05,126.05590254764
33.350000000002,3.9333333333385e-05,126.20473975661,0.00037331100775122,2.3557740863767e-05,3.9333333333385e-05,126.20473975694
33.360000000002,3.9600000000052e-05,126.35357696591,0.00037355906976672,2.3805802879271e-05,3.9600000000052e-05,126.35357696624
33.370000000002,3.9866666666718e-05,126.50241417521,0.00037380713178223,2.4053864894775e-05,3.9866666666718e-05,126.50241417555
33.380000000002,4.0133333333385e-05,126.65125138452,0.00037405519379773,2.4301926910279e-05,4.0133333333385e-05,126.65125138485
33.390000000002,4.0400000000051e-05,126.80008859382,0.00037430325581324,2.4549988925783e-05,4.0400000000051e-05,126.80008859415
33.400000000002,4.0666666666718e-05,126.94892580312,0.00037455131782874,2.4798050941287e-05,4.0666666666718e-05,126.94892580345
33.410000000002,4.0933333333385e-05,127.09776301242,0.00037479937984424,2.504611295679e-05,4.0933333333385e-05,127.09776301275
33.420000000002,4.1200000000051e-05,127.24660022172,0.00037504744185975,2.5294174972294e-05,4.1200000000051e-05,127.24660022206
33.430000000002,4.1466666666718e-05,127.39543743103,0.00037529550387525,2.5542236987798e-05,4.1466666666718e-05,127.39543743136
33.440000000002,4.1733333333384e-05,127.54427464033,0.00037554356589075,2.5790299003302e-05,4.1733333333384e-05,127.54427464066
33.450000000002,4.2000000000051e-05,127.69311184963,0.00037579162790626,2.6038361018806e-05,4.2000000000051e-05,127.69311184996
33.460000000002,4.2266666666718e-05,127.84194905893,0.00037603968992176,2.628642303431e-05,4.2266666666718e-05,127.84194905927
33.470000000002,4.2533333333384e-05,127.99078626824,0.00037628775193727,2.6534485049813e-05,4.2533333333384e-05,127.99078626857
33.480000000002,4.2800000000051e-05,128.13962347754,0.00037653581395277,2.6782547065317e-05,4.2800000000051e-05,128.13962347787
33.490000000002,4.3066666666717e-05,128.28846068684,0.00037678387596827,2.7030609080821e-05,4.3066666666718e-05,128.28846068717
33.500000000002,4.3333333333384e-05,128.43729789614,0.00037703193798378,2.7278671096325e-05,4.3333333333384e-05,128.43729789648
33.510000000002,4.3600000000051e-05,128.58613510544,0.00037727999999928,2.7526733111829e-05,4.3600000000051e-05,128.58613510578
33.520000000002,4.3866666666717e-05,128.73497231475,0.00037752806201478,2.7774795127332e-05,4.3866666666717e-05,128.73497231508
33.530000000002,4.4133333333384e-05,128.88380952405,0.00037777612403029,2.8022857142836e-05,4.4133333333384e-05,128.88380952438
33.540000000002,4.4400000000051e-05,129.03264673335,0.00037802418604579,2.827091915834e-05,4.4400000000051e-05,129.03264673368
33.550000000002,4.4666666666717e-05,129.18148394265,0.0003782722480613,2.8518981173844e-05,4.4666666666717e-05,129.18148394299
33.560000000002,4.4933333333384e-05,129.33032115196,0.0003785203100768,2.8767043189348e-05,4.4933333333384e-05,129.33032115229
33.570000000002,4.520000000005e-05,129.47915836126,0.0003787683720923,2.9015105204852e-05,4.520000000005e-05,129.47915836159
33.580000000002,4.5466666666717e-05,129.62799557056,0.00037901643410781,2.9263167220355e-05,4.5466666666717e-05,129.62799557089
33.590000000002,4.5733333333384e-05,129.77683277986,0.00037926449612331,2.9511229235859e-05,4.5733333333384e-05,129.7768327802
33.600000000002,4.600000000005e-05,129.92566998917,0.00037951255813882,2.9759291251363e-05,4.600000000005e-05,129.9256699895
33.610000000002,4.6266666666717e-05,130.07450719847,0.00037976062015432,3.0007353266867e-05,4.6266666666717e-05,130.0745071988
33.620000000002,4.6533333333383e-05,130.22334440777,0.00038000868216982,3.0255415282371e-05,4.6533333333383e-05,130.2233444081
33.630000000002,4.680000000005e-05,130.37218161707,0.00038025674418533,3.0503477297875e-05,4.680000000005e-05,130.37218161741
33.640000000002,4.7066666666717e-05,130.52101882637,0.00038050480620083,3.0751539313378e-05,4.7066666666717e-05,130.52101882671
33.650000000002,4.7333333333383e-05,130.66985603568,0.00038075286821633,3.0999601328882e-05,4.7333333333383e-05,130.66985603601
33.660000000002,4.760000000005e-05,130.81869324498,0.00038100093023184,3.1247663344386e-05,4.760000000005e-05,130.81869324531
33.670000000002,4.7866666666717e-05,130.96753045428,0.00038124899224734,3.149572535989e-05,4.7866666666717e-05,130.96753045461
33.680000000002,4.8133333333383e-05,131.11636766358,0.00038149705426285,3.1743787375394e-05,4.8133333333383e-05,131.11636766392
33.690000000002,4.840000000005e-05,131.26520487289,0.00038174511627835,3.1991849390898e-05,4.840000000005e-05,131.26520487322
33.700000000002,4.8666666666716e-05,131.41404208219,0.00038199317829385,3.2239911406401e-05,4.8666666666716e-05,131.41404208252
33.710000000002,4.8933333333383e-05,131.56287929149,0.00038224124030936,3.2487973421905e-05,4.8933333333383e-05,131.56287929182
33.720000000002,4.920000000005e-05,131.71171650079,0.00038248930232486,3.2736035437409e-05,4.920000000005e-05,131.71171650113
33.730000000002,4.9466666666716e-05,131.8605537101,0.00038273736434037,3.2984097452913e-05,4.9466666666716e-05,131.86055371043
33.740000000002,4.9733333333383e-05,132.0093909194,0.00038298542635587,3.3232159468417e-05,4.9733333333383e-05,132.00939091973
33.750000000002,5.0000000000049e-05,132.1582281287,0.00038323348837137,3.3480221483921e-05,5.0000000000049e-05,132.15822812903
33.760000000002,5.0266666666716e-05,132.307065338,0.00038348155038688,3.3728283499424e-05,5.0266666666716e-05,132.30706533833
33.770000000002,5.0533333333383e-05,132.4559025473,0.00038372961240238,3.3976345514928e-05,5.0533333333383e-05,132.45590254764
33.780000000002,5.0800000000049e-05,132.60473975661,0.00038397767441788,3.4224407530432e-05,5.0800000000049e-05,132.60473975694
33.790000000002,5.1066666666716e-05,132.75357696591,0.00038422573643339,3.4472469545936e-05,5.1066666666716e-05,132.75357696624
33.800000000002,5.1333333333383e-05,132.90241417521,0.00038447379844889,3.472053156144e-05,5.1333333333383e-05,132.90241417554
33.810000000002,5.1600000000049e-05,133.05125138451,0.0003847218604644,3.4968593576943e-05,5.1600000000049e-05,133.05125138485
33.820000000002,5.1866666666716e-05,133.20008859382,0.0003849699224799,3.5216655592447e-05,5.1866666666716e-05,133.20008859415
33.830000000002,5.2133333333382e-05,132.8953266891,0.00038527468438462,3.5521417497165e-05,5.2133333333382e-05,132.89532668974
33.840000000002,5.2400000000049e-05,132.59056478434,0.00038557944628938,3.5826179401927e-05,5.2400000000049e-05,132.59056478498
33.850000000002,5.2666666666716e-05,132.28580287957,0.00038588420819414,3.6130941306688e-05,5.2666666666716e-05,132.28580288022
33.860000000002,5.2933333333382e-05,131.98104097481,0.0003861889700989,3.643570321145e-05,5.2933333333382e-05,131.98104097546
33.870000000002,5.3200000000049e-05,131.67627907005,0.00038649373200366,3.6740465116212e-05,5.3200000000049e-05,131.6762790707
33.880000000002,5.3466666666715e-05,131.37151716529,0.00038679849390843,3.7045227020974e-05,5.3466666666715e-05,131.37151716594
33.890000000002,5.3733333333382e-05,131.06675526053,0.00038710325581319,3.7349988925735e-05,5.3733333333382e-05,131.06675526117
33.900000000002,5.4000000000049e-05,130.76199335577,0.00038740801771795,3.7654750830497e-05,5.4000000000049e-05,130.76199335641
33.910000000002,5.4266666666715e-05,130.457231451,0.00038771277962271,3.7959512735259e-05,5.4266666666715e-05,130.45723145165
33.920000000002,5.4533333333382e-05,130.15246954624,0.00038801754152747,3.8264274640021e-05,5.4533333333382e-05,130.15246954689
33.930000000002,5.4800000000049e-05,129.84770764148,0.00038832230343223,3.8569036544782e-05,5.4800000000049e-05,129.84770764213
33.940000000002,5.5066666666715e-05,129.54294573672,0.000388627065337,3.8873798449544e-05,5.5066666666715e-05,129.54294573737
33.950000000002,5.5333333333382e-05,129.23818383196,0.00038893182724176,3.9178560354306e-05,5.5333333333382e-05,129.23818383261
33.960000000002,5.5600000000048e-05,128.9334219272,0.00038923658914652,3.9483322259068e-05,5.5600000000048e-05,128.93342192785
33.970000000002,5.5866666666715e-05,128.62866002243,0.00038954135105128,3.9788084163829e-05,5.5866666666715e-05,128.62866002309
33.980000000002,5.6133333333382e-05,128.32389811767,0.00038984611295604,4.0092846068591e-05,5.6133333333382e-05,128.32389811832
33.990000000002,5.6400000000048e-05,128.01913621291,0.00039015087486081,4.0397607973353e-05,5.6400000000048e-05,128.01913621356
34.000000000002,5.6666666666715e-05,127.71437430815,0.00039045563676557,4.0702369878115e-05,5.6666666666715e-05,127.7143743088
34.010000000002,5.6933333333381e-05,127.40961240339,0.00039076039867033,4.1007131782876e-05,5.6933333333381e-05,127.40961240404
34.020000000002,5.7200000000048e-05,127.10485049863,0.00039106516057509,4.1311893687638e-05,5.7200000000048e-05,127.10485049928
34.030000000002,5.7466666666715e-05,126.80008859386,0.00039136992247985,4.16166555924e-05,5.7466666666715e-05,126.80008859452
34.040000000002,5.7733333333381e-05,126.4953266891,0.00039167468438461,4.1921417497162e-05,5.7733333333381e-05,126.49532668976
34.050000000002,5.8000000000048e-05,126.19056478434,0.00039197944628938,4.2226179401923e-05,5.8000000000048e-05,126.190564785
34.060000000002,5.8266666666714e-05,125.88580287958,0.00039228420819414,4.2530941306685e-05,5.8266666666714e-05,125.88580288024
34.070000000002,5.8533333333381e-05,125.58104097482,0.0003925889700989,4.2835703211447e-05,5.8533333333381e-05,125.58104097548
34.080000000002,5.8800000000048e-05,125.27627907005,0.00039289373200366,4.3140465116208e-05,5.8800000000048e-05,125.27627907071
34.090000000002,5.9066666666714e-05,124.97151716529,0.00039319849390842,4.344522702097e-05,5.9066666666714e-05,124.97151716595
34.100000000002,5.9333333333381e-05,124.66675526053,0.00039350325581318,4.3749988925732e-05,5.9333333333381e-05,124.66675526119
34.110000000002,5.9600000000048e-05,124.36199335577,0.00039380801771795,4.4054750830494e-05,5.9600000000048e-05,124.36199335643
34.120000000002,5.9866666666714e-05,124.05723145101,0.00039411277962271,4.4359512735255e-05,5.9866666666714e-05,124.05723145167
34.130000000002,6.0133333333381e-05,123.75246954625,0.00039441754152747,4.4664274640017e-05,6.0133333333381e-05,123.75246954691
34.140000000002,6.0400000000047e-05,123.44770764148,0.00039472230343223,4.4969036544779e-05,6.0400000000047e-05,123.44770764215
34.150000000002,6.0666666666714e-05,123.14294573672,0.00039502706533699,4.5273798449541e-05,6.0666666666714e-05,123.14294573739
34.160000000002,6.0933333333381e-05,122.83818383196,0.00039533182724175,4.5578560354302e-05,6.0933333333381e-05,122.83818383263
34.170000000002,6.1200000000047e-05,122.5334219272,0.00039563658914652,4.5883322259064e-05,6.1200000000047e-05,122.53342192787
34.180000000002,6.1466666666714e-05,122.22866002244,0.00039594135105128,4.6188084163826e-05,6.1466666666714e-05,122.2286600231
34.190000000002,6.173333333338e-05,121.92389811768,0.00039624611295604,4.6492846068588e-05,6.173333333338e-05,121.92389811834
34.200000000002,6.2000000000047e-05,121.61913621291,0.0003965508748608,4.6797607973349e-05,6.2000000000047e-05,121.61913621358
34.210000000002,6.2266666666714e-05,121.31437430815,0.00039685563676556,4.7102369878111e-05,6.2266666666714e-05,121.31437430882
34.220000000002,6.253333333338e-05,121.00961240339,0.00039716039867033,4.7407131782873e-05,6.253333333338e-05,121.00961240406
34.230000000002,6.2800000000047e-05,120.70485049863,0.00039746516057509,4.7711893687635e-05,6.2800000000047e-05,120.7048504993
34.240000000002,6.3066666666714e-05,120.40008859387,0.00039776992247985,4.8016655592396e-05,6.3066666666714e-05,120.40008859454
34.250000000002,6.333333333338e-05,120.09532668911,0.00039807468438461,4.8321417497158e-05,6.333333333338e-05,120.09532668978
34.260000000002,6.3600000000047e-05,119.79056478434,0.00039837944628937,4.862617940192e-05,6.3600000000047e-05,119.79056478502
34.270000000002,6.3866666666713e-05,119.48580287958,0.00039868420819413,4.8930941306682e-05,6.3866666666713e-05,119.48580288026
34.280000000002,6.413333333338e-05,119.18104097482,0.0003989889700989,4.9235703211443e-05,6.413333333338e-05,119.18104097549
34.290000000002,6.4400000000047e-05,118.87627907006,0.00039929373200366,4.9540465116205e-05,6.4400000000047e-05,118.87627907073
34.300000000002,6.4666666666713e-05,118.5715171653,0.00039959849390842,4.9845227020967e-05,6.4666666666713e-05,118.57151716597
34.310000000002,6.493333333338e-05,118.26675526053,0.00039990325581318,5.0149988925729e-05,6.493333333338e-05,118.26675526121
34.320000000002,6.5200000000046e-05,117.96199335577,0.00040020801771794,5.045475083049e-05,6.5200000000046e-05,117.96199335645
34.330000000002,6.5466666666713e-05,117.65723145101,0.0004005127796227,5.0759512735252e-05,6.5466666666713e-05,117.65723145169
34.340000000002,6.573333333338e-05,117.35246954625,0.00040081754152747,5.1064274640014e-05,6.573333333338e-05,117.35246954693
34.350000000002,6.6000000000046e-05,117.04770764149,0.00040112230343223,5.1369036544776e-05,6.6000000000046e-05,117.04770764217
34.360000000002,6.6266666666713e-05,116.74294573673,0.00040142706533699,5.1673798449537e-05,6.6266666666713e-05,116.74294573741
34.370000000002,6.653333333338e-05,116.43818383196,0.00040173182724175,5.1978560354299e-05,6.6533333333379e-05,116.43818383265
34.380000000002,6.6800000000046e-05,116.1334219272,0.00040203658914651,5.2283322259061e-05,6.6800000000046e-05,116.13342192788
34.390000000002,6.7066666666713e-05,115.82866002244,0.00040234135105127,5.2588084163822e-05,6.7066666666713e-05,115.82866002312
34.400000000002,6.7333333333379e-05,115.52389811768,0.00040264611295604,5.2892846068584e-05,6.7333333333379e-05,115.52389811836
34.410000000002,6.7600000000046e-05,115.21913621292,0.0004029508748608,5.3197607973346e-05,6.7600000000046e-05,115.2191362136
34.420000000002,6.7866666666713e-05,114.91437430816,0.00040325563676556,5.3502369878108e-05,6.7866666666713e-05,114.91437430884
34.430000000002,6.8133333333379e-05,114.60961240339,0.00040356039867032,5.3807131782869e-05,6.8133333333379e-05,114.60961240408
34.440000000002,6.8400000000046e-05,114.30485049863,0.00040386516057508,5.4111893687631e-05,6.8400000000046e-05,114.30485049932
34.450000000002,6.8666666666712e-05,114.00008859387,0.00040416992247985,5.4416655592393e-05,6.8666666666712e-05,114.00008859456
34.460000000002,6.8933333333379e-05,113.69532668911,0.00040447468438461,5.4721417497155e-05,6.8933333333379e-05,113.6953266898
34.470000000002,6.9200000000046e-05,113.39056478435,0.00040477944628937,5.5026179401916e-05,6.9200000000046e-05,113.39056478503
34.480000000002,6.9466666666712e-05,113.08580287959,0.00040508420819413,5.5330941306678e-05,6.9466666666712e-05,113.08580288027
34.490000000002,6.9733333333379e-05,112.78104097482,0.00040538897009889,5.563570321144e-05,6.9733333333379e-05,112.78104097551
34.500000000002,7.0000000000045e-05,112.47627907006,0.00040569373200365,5.5940465116202e-05,7.0000000000045e-05,112.47627907075
34.510000000002,7.0266666666712e-05,112.1715171653,0.00040599849390842,5.6245227020963e-05,7.0266666666712e-05,112.17151716599
34.520000000002,7.0533333333379e-05,111.86675526054,0.00040630325581318,5.6549988925725e-05,7.0533333333379e-05,111.86675526123
34.530000000002,7.0800000000045e-05,111.56199335578,0.00040660801771794,5.6854750830487e-05,7.0800000000045e-05,111.56199335647
34.540000000002,7.1066666666712e-05,111.25723145101,0.0004069127796227,5.7159512735249e-05,7.1066666666712e-05,111.25723145171
34.550000000002,7.1333333333379e-05,110.95246954625,0.00040721754152746,5.746427464001e-05,7.1333333333379e-05,110.95246954695
34.560000000002,7.1600000000045e-05,110.64770764149,0.00040752230343222,5.7769036544772e-05,7.1600000000045e-05,110.64770764218
34.570000000002,7.1866666666712e-05,110.34294573673,0.00040782706533699,5.8073798449534e-05,7.1866666666712e-05,110.34294573742
34.580000000002,7.2133333333378e-05,110.03818383197,0.00040813182724175,5.8378560354296e-05,7.2133333333378e-05,110.03818383266
34.590000000002,7.2400000000045e-05,109.73342192721,0.00040843658914651,5.8683322259057e-05,7.2400000000045e-05,109.7334219279
34.600000000002,7.2666666666712e-05,109.42866002244,0.00040874135105127,5.8988084163819e-05,7.2666666666712e-05,109.42866002314
34.610000000002,7.2933333333378e-05,109.12389811768,0.00040904611295603,5.9292846068581e-05,7.2933333333378e-05,109.12389811838
34.620000000002,7.3200000000045e-05,108.81913621292,0.0004093508748608,5.9597607973343e-05,7.3200000000045e-05,108.81913621362
34.630000000002,7.3466666666711e-05,108.51437430816,0.00040965563676556,5.9902369878105e-05,7.3466666666711e-05,108.51437430886
34.640000000002,7.3733333333378e-05,108.2096124034,0.00040996039867032,6.0207131782866e-05,7.3733333333378e-05,108.2096124041
34.650000000002,7.4000000000045e-05,107.90485049864,0.00041026516057508,6.0511893687628e-05,7.4000000000045e-05,107.90485049933
34.660000000002,7.4266666666711e-05,107.60008859387,0.00041056992247984,6.081665559239e-05,7.4266666666711e-05,107.60008859457
34.670000000002,7.4533333333378e-05,107.29532668911,0.0004108746843846,6.1121417497152e-05,7.4533333333378e-05,107.29532668981
34.680000000002,7.4800000000045e-05,106.99056478435,0.00041117944628937,6.1426179401913e-05,7.4800000000045e-05,106.99056478505
34.690000000002,7.5066666666711e-05,106.68580287959,0.00041148420819413,6.1730941306675e-05,7.5066666666711e-05,106.68580288029
34.700000000002,7.5333333333378e-05,106.38104097483,0.00041178897009889,6.2035703211437e-05,7.5333333333378e-05,106.38104097553
34.710000000002,7.5600000000044e-05,106.07627907006,0.00041209373200365,6.2340465116199e-05,7.5600000000044e-05,106.07627907077
34.720000000002,7.5866666666711e-05,105.7715171653,0.00041239849390841,6.264522702096e-05,7.5866666666711e-05,105.77151716601
34.730000000002,7.6133333333378e-05,105.46675526054,0.00041270325581317,6.2949988925722e-05,7.6133333333378e-05,105.46675526125
34.740000000002,7.6400000000044e-05,105.16199335578,0.00041300801771794,6.3254750830484e-05,7.6400000000044e-05,105.16199335648
34.750000000002,7.6666666666711e-05,104.85723145102,0.0004133127796227,6.3559512735246e-05,7.6666666666711e-05,104.85723145172
34.760000000002,7.6933333333377e-05,104.55246954626,0.00041361754152746,6.3864274640007e-05,7.6933333333377e-05,104.55246954696
34.770000000002,7.7200000000044e-05,104.24770764149,0.00041392230343222,6.4169036544769e-05,7.7200000000044e-05,104.2477076422
34.780000000002,7.7466666666711e-05,103.94294573673,0.00041422706533698,6.4473798449531e-05,7.7466666666711e-05,103.94294573744
34.790000000002,7.7733333333377e-05,103.63818383197,0.00041453182724175,6.4778560354293e-05,7.7733333333377e-05,103.63818383268
34.800000000002,7.8000000000044e-05,103.33342192721,0.00041483658914651,6.5083322259054e-05,7.8000000000044e-05,103.33342192792
34.810000000002,7.8266666666711e-05,103.02866002245,0.00041514135105127,6.5388084163816e-05,7.8266666666711e-05,103.02866002316
34.820000000002,7.8533333333377e-05,102.72389811769,0.00041544611295603,6.5692846068578e-05,7.8533333333377e-05,102.72389811839
34.830000000002,7.8800000000044e-05,102.41913621292,0.00041575087486079,6.599760797334e-05,7.8800000000044e-05,102.41913621363
34.840000000002,7.906666666671e-05,102.11437430816,0.00041605563676555,6.6302369878102e-05,7.906666666671e-05,102.11437430887
34.850000000002,7.9333333333377e-05,101.8096124034,0.00041636039867032,6.6607131782863e-05,7.9333333333377e-05,101.80961240411
34.860000000002,7.9600000000044e-05,101.50485049864,0.00041666516057508,6.6911893687625e-05,7.9600000000044e-05,101.50485049935
34.870000000002,7.986666666671e-05,101.20008859388,0.00041696992247984,6.7216655592387e-05,7.986666666671e-05,101.20008859459
34.880000000002,8.0133333333377e-05,100.89532668911,0.0004172746843846,6.7521417497149e-05,8.0133333333377e-05,100.89532668983
34.890000000002,8.0400000000043e-05,100.59056478435,0.00041757944628936,6.782617940191e-05,8.0400000000043e-05,100.59056478507
34.900000000002,8.066666666671e-05,100.28580287959,0.00041788420819412,6.8130941306672e-05,8.066666666671e-05,100.2858028803
34.910000000002,8.0933333333377e-05,99.981040974829,0.00041818897009889,6.8435703211434e-05,8.0933333333377e-05,99.981040975542
34.920000000002,8.1200000000043e-05,99.676279070068,0.00041849373200365,6.8740465116196e-05,8.1200000000043e-05,99.676279070781
34.930000000002,8.146666666671e-05,99.371517165306,0.00041879849390841,6.9045227020958e-05,8.146666666671e-05,99.37151716602
34.940000000002,8.1733333333376e-05,99.066755260544,0.00041910325581317,6.9349988925719e-05,8.1733333333376e-05,99.066755261258
34.950000000002,8.2000000000043e-05,98.761993355782,0.00041940801771793,6.9654750830481e-05,8.2000000000043e-05,98.761993356497
34.960000000002,8.226666666671e-05,98.45723145102,0.0004197127796227,6.9959512735243e-05,8.226666666671e-05,98.457231451736
34.970000000002,8.2533333333376e-05,98.152469546259,0.00042001754152746,7.0264274640005e-05,8.2533333333376e-05,98.152469546974
34.980000000002,8.2800000000043e-05,97.847707641497,0.00042032230343222,7.0569036544766e-05,8.2800000000043e-05,97.847707642213
34.990000000002,8.306666666671e-05,97.542945736735,0.00042062706533698,7.0873798449528e-05,8.306666666671e-05,97.542945737451
35.000000000002,8.3333333333376e-05,97.238183831973,0.00042093182724174,7.117856035429e-05,8.3333333333376e-05,97.23818383269
35.010000000002,8.3600000000043e-05,96.933421927211,0.0004212365891465,7.1483322259052e-05,8.3600000000043e-05,96.933421927928
35.020000000002,8.3866666666709e-05,96.62866002245,0.00042154135105127,7.1788084163814e-05,8.3866666666709e-05,96.628660023167
35.030000000002,8.4133333333376e-05,96.323898117688,0.00042184611295603,7.2092846068575e-05,8.4133333333376e-05,96.323898118406
35.040000000002,8.4400000000043e-05,96.019136212926,0.00042215087486079,7.2397607973337e-05,8.4400000000043e-05,96.019136213644
35.050000000002,8.4666666666709e-05,95.714374308164,0.00042245563676555,7.2702369878099e-05,8.4666666666709e-05,95.714374308883
35.060000000002,8.4933333333376e-05,95.409612403402,0.00042276039867031,7.3007131782861e-05,8.4933333333376e-05,95.409612404121
35.070000000002,8.5200000000042e-05,95.104850498641,0.00042306516057508,7.3311893687623e-05,8.5200000000042e-05,95.10485049936
35.080000000002,8.5466666666709e-05,94.800088593879,0.00042336992247984,7.3616655592384e-05,8.5466666666709e-05,94.800088594598
35.090000000002,8.5733333333376e-05,94.495326689117,0.0004236746843846,7.3921417497146e-05,8.5733333333376e-05,94.495326689836
35.100000000002,8.6000000000042e-05,94.190564784355,0.00042397944628936,7.4226179401908e-05,8.6000000000042e-05,94.190564785075
35.110000000002,8.6266666666709e-05,93.885802879593,0.00042428420819412,7.453094130667e-05,8.6266666666709e-05,93.885802880313
35.120000000002,8.6533333333376e-05,93.581040974832,0.00042458897009888,7.4835703211432e-05,8.6533333333376e-05,93.581040975552
35.130000000002,8.6800000000042e-05,93.27627907007,0.00042489373200365,7.5140465116194e-05,8.6800000000042e-05,93.27627907079
35.140000000002,8.7066666666709e-05,92.971517165308,0.00042519849390841,7.5445227020955e-05,8.7066666666709e-05,92.971517166028
35.150000000002,8.7333333333375e-05,92.666755260546,0.00042550325581317,7.5749988925717e-05,8.7333333333375e-05,92.666755261267
35.160000000002,8.7600000000042e-05,92.361993355784,0.00042580801771793,7.6054750830479e-05,8.7600000000042e-05,92.361993356505
35.170000000002,8.7866666666709e-05,92.057231451023,0.00042611277962269,7.6359512735241e-05,8.7866666666709e-05,92.057231451743
35.180000000002,8.8133333333375e-05,91.752469546261,0.00042641754152746,7.6664274640003e-05,8.8133333333375e-05,91.752469546981
35.190000000002,8.8400000000042e-05,91.447707641499,0.00042672230343222,7.6969036544764e-05,8.8400000000042e-05,91.44770764222
35.200000000002,8.8666666666708e-05,91.142945736737,0.00042702706533698,7.7273798449526e-05,8.8666666666708e-05,91.142945737458
35.210000000002,8.8933333333375e-05,90.838183831975,0.00042733182724174,7.7578560354288e-05,8.8933333333375e-05,90.838183832696
35.220000000002,8.9200000000042e-05,90.533421927213,0.0004276365891465,7.788332225905e-05,8.9200000000042e-05,90.533421927934
35.230000000002,8.9466666666708e-05,90.228660022451,0.00042794135105126,7.8188084163812e-05,8.9466666666708e-05,90.228660023173
35.240000000002,8.9733333333375e-05,89.92389811769,0.00042824611295603,7.8492846068574e-05,8.9733333333375e-05,89.923898118411
35.250000000002,9.0000000000042e-05,89.619136212928,0.00042855087486079,7.8797607973336e-05,9.0000000000042e-05,89.619136213649
35.260000000002,9.0266666666708e-05,89.314374308166,0.00042885563676555,7.9102369878097e-05,9.0266666666708e-05,89.314374308887
35.270000000002,9.0533333333375e-05,89.009612403404,0.00042916039867031,7.9407131782859e-05,9.0533333333375e-05,89.009612404125
35.280000000002,9.0800000000041e-05,88.704850498642,0.00042946516057507,7.9711893687621e-05,9.0800000000041e-05,88.704850499363
35.290000000002,9.1066666666708e-05,88.40008859388,0.00042976992247984,8.0016655592383e-05,9.1066666666708e-05,88.400088594601
35.300000000002,9.1333333333375e-05,88.09532668902,0.0004300746843847,8.0321417497244e-05,9.1333333333375e-05,88.095326689048
35.310000000002,9.1600000000041e-05,87.790564784258,0.00043037944628946,8.0626179402006e-05,9.1600000000041e-05,87.790564784287
35.320000000002,9.1866666666708e-05,87.485802879496,0.00043068420819422,8.0930941306767e-05,9.1866666666708e-05,87.485802879525
35.330000000002,9.2133333333374e-05,87.181040974734,0.00043098897009898,8.1235703211529e-05,9.2133333333374e-05,87.181040974763
35.340000000002,9.2400000000041e-05,86.876279069972,0.00043129373200374,8.1540465116291e-05,9.2400000000041e-05,86.876279070001
35.350000000002,9.2666666666708e-05,86.57151716521,0.00043159849390851,8.1845227021053e-05,9.2666666666708e-05,86.571517165239
35.360000000002,9.2933333333374e-05,86.266755260449,0.00043190325581327,8.2149988925815e-05,9.2933333333374e-05,86.266755260477
35.370000000002,9.3200000000041e-05,85.961993355687,0.00043220801771803,8.2454750830577e-05,9.3200000000041e-05,85.961993355716
35.380000000002,9.3466666666707e-05,85.657231450925,0.00043251277962279,8.2759512735338e-05,9.3466666666707e-05,85.657231450954
35.390000000002,9.3733333333374e-05,85.352469546163,0.00043281754152755,8.30642746401e-05,9.3733333333374e-05,85.352469546192
35.400000000002,9.4000000000041e-05,85.047707641401,0.00043312230343231,8.3369036544862e-05,9.4000000000041e-05,85.04770764143
35.410000000002,9.4266666666707e-05,84.742945736639,0.00043342706533708,8.3673798449624e-05,9.4266666666707e-05,84.742945736668
35.420000000002,9.4533333333374e-05,84.438183831878,0.00043373182724184,8.3978560354386e-05,9.4533333333374e-05,84.438183831906
35.430000000002,9.4800000000041e-05,84.133421927116,0.0004340365891466,8.4283322259148e-05,9.4800000000041e-05,84.133421927145
35.440000000002,9.5066666666707e-05,83.828660022354,0.00043434135105136,8.4588084163909e-05,9.5066666666707e-05,83.828660022383
35.450000000002,9.5333333333374e-05,83.523898117592,0.00043464611295612,8.4892846068671e-05,9.5333333333374e-05,83.523898117621
35.460000000002,9.560000000004e-05,83.21913621283,0.00043495087486089,8.5197607973433e-05,9.560000000004e-05,83.219136212859
35.470000000002,9.5866666666707e-05,82.914374308068,0.00043525563676565,8.5502369878195e-05,9.5866666666707e-05,82.914374308097
35.480000000002,9.6133333333374e-05,82.609612403306,0.00043556039867041,8.5807131782957e-05,9.6133333333374e-05,82.609612403335
35.490000000002,9.640000000004e-05,82.304850498545,0.00043586516057517,8.6111893687719e-05,9.640000000004e-05,82.304850498574
35.500000000002,9.6666666666707e-05,82.000088593783,0.00043616992247993,8.6416655592481e-05,9.6666666666707e-05,82.000088593812
35.510000000002,9.6933333333373e-05,81.695326689021,0.00043647468438469,8.6721417497242e-05,9.6933333333373e-05,81.69532668905
35.520000000002,9.720000000004e-05,81.390564784259,0.00043677944628946,8.7026179402004e-05,9.720000000004e-05,81.390564784288
35.530000000002,9.7466666666707e-05,81.085802879497,0.00043708420819422,8.7330941306766e-05,9.7466666666707e-05,81.085802879526
35.540000000001,9.7733333333373e-05,80.781040974735,0.00043738897009898,8.7635703211528e-05,9.7733333333373e-05,80.781040974764
35.550000000001,9.800000000004e-05,80.476279069974,0.00043769373200374,8.794046511629e-05,9.800000000004e-05,80.476279070003
35.560000000001,9.8266666666707e-05,80.171517165212,0.0004379984939085,8.8245227021052e-05,9.8266666666707e-05,80.171517165241
35.570000000001,9.8533333333373e-05,79.86675526045,0.00043830325581327,8.8549988925813e-05,9.8533333333373e-05,79.866755260479
35.580000000001,9.880000000004e-05,79.561993355688,0.00043860801771803,8.8854750830575e-05,9.880000000004e-05,79.561993355717
35.590000000001,9.9066666666706e-05,79.257231450926,0.00043891277962279,8.9159512735337e-05,9.9066666666706e-05,79.257231450955
35.600000000001,9.9333333333373e-05,78.952469546164,0.00043921754152755,8.9464274640099e-05,9.9333333333373e-05,78.952469546194
35.610000000001,9.960000000004e-05,78.647707641403,0.00043952230343231,8.9769036544861e-05,9.960000000004e-05,78.647707641432
35.620000000001,9.9866666666706e-05,78.342945736641,0.00043982706533708,9.0073798449623e-05,9.9866666666706e-05,78.34294573667
35.630000000001,0.00010013333333337,78.038183831879,0.00044013182724184,9.0378560354384e-05,0.00010013333333337,78.038183831908
35.640000000001,0.00010040000000004,77.733421927117,0.0004404365891466,9.0683322259146e-05,0.00010040000000004,77.733421927146
35.650000000001,0.00010066666666671,77.428660022355,0.00044074135105136,9.0988084163908e-05,0.00010066666666671,77.428660022384
35.660000000001,0.00010093333333337,77.123898117593,0.00044104611295612,9.129284606867e-05,0.00010093333333337,77.123898117623
35.670000000001,0.00010120000000004,76.819136212832,0.00044135087486088,9.1597607973432e-05,0.00010120000000004,76.819136212861
35.680000000001,0.00010146666666671,76.51437430807,0.00044165563676565,9.1902369878194e-05,0.00010146666666671,76.514374308099
35.690000000001,0.00010173333333337,76.209612403308,0.00044196039867041,9.2207131782955e-05,0.00010173333333337,76.209612403337
35.700000000001,0.00010200000000004,75.904850498546,0.00044226516057517,9.2511893687717e-05,0.00010200000000004,75.904850498575
35.710000000001,0.00010226666666671,75.600088593784,0.00044256992247993,9.2816655592479e-05,0.00010226666666671,75.600088593814
35.720000000001,0.00010253333333337,75.295326689022,0.00044287468438469,9.3121417497241e-05,0.00010253333333337,75.295326689052
35.730000000001,0.00010280000000004,74.99056478426,0.00044317944628946,9.3426179402003e-05,0.00010280000000004,74.99056478429
35.740000000001,0.00010306666666671,74.685802879499,0.00044348420819422,9.3730941306765e-05,0.00010306666666671,74.685802879528
35.750000000001,0.00010333333333337,74.381040974737,0.00044378897009898,9.4035703211527e-05,0.00010333333333337,74.381040974766
35.760000000001,0.00010360000000004,74.076279069975,0.00044409373200374,9.4340465116288e-05,0.00010360000000004,74.076279070005
35.770000000001,0.00010386666666671,73.771517165213,0.0004443984939085,9.464522702105e-05,0.00010386666666671,73.771517165243
35.780000000001,0.00010413333333337,73.466755260451,0.00044470325581326,9.4949988925812e-05,0.00010413333333337,73.466755260481
35.790000000001,0.00010440000000004,73.161993355689,0.00044500801771803,9.5254750830574e-05,0.00010440000000004,73.161993355719
35.800000000001,0.00010466666666671,72.857231450928,0.00044531277962279,9.5559512735336e-05,0.00010466666666671,72.857231450957
35.810000000001,0.00010493333333337,72.552469546166,0.00044561754152755,9.5864274640098e-05,0.00010493333333337,72.552469546196
35.820000000001,0.00010520000000004,72.247707641404,0.00044592230343231,9.6169036544859e-05,0.00010520000000004,72.247707641434
35.830000000001,0.00010546666666671,71.942945736642,0.00044622706533707,9.6473798449621e-05,0.00010546666666671,71.942945736672
35.840000000001,0.00010573333333337,71.63818383188,0.00044653182724184,9.6778560354383e-05,0.00010573333333337,71.63818383191
35.850000000001,0.00010600000000004,71.333421927118,0.0004468365891466,9.7083322259145e-05,0.00010600000000004,71.333421927148
35.860000000001,0.0001062666666667,71.028660022357,0.00044714135105136,9.7388084163907e-05,0.0001062666666667,71.028660022387
35.870000000001,0.00010653333333337,70.723898117595,0.00044744611295612,9.7692846068669e-05,0.00010653333333337,70.723898117625
35.880000000001,0.00010680000000004,70.419136212833,0.00044775087486088,9.799760797343e-05,0.00010680000000004,70.419136212863
35.890000000001,0.0001070666666667,70.114374308071,0.00044805563676564,9.8302369878192e-05,0.0001070666666667,70.114374308101
35.900000000001,0.00010733333333337,69.809612403309,0.00044836039867041,9.8607131782954e-05,0.00010733333333337,69.809612403339
35.910000000001,0.00010760000000004,69.504850498547,0.00044866516057517,9.8911893687716e-05,0.00010760000000004,69.504850498578
35.920000000001,0.0001078666666667,69.200088593786,0.00044896992247993,9.9216655592478e-05,0.0001078666666667,69.200088593816
35.930000000001,0.00010813333333337,68.895326689024,0.00044927468438469,9.952141749724e-05,0.00010813333333337,68.895326689054
35.940000000001,0.00010840000000004,68.590564784262,0.00044957944628945,9.9826179402001e-05,0.00010840000000004,68.590564784292
35.950000000001,0.0001086666666667,68.2858028795,0.00044988420819422,0.00010013094130676,0.0001086666666667,68.285802879531
35.960000000001,0.00010893333333337,67.981040974738,0.00045018897009898,0.00010043570321153,0.00010893333333337,67.981040974769
35.970000000001,0.00010920000000004,67.676279069976,0.00045049373200374,0.00010074046511629,0.00010920000000004,67.676279070007
35.980000000001,0.0001094666666667,67.371517165214,0.0004507984939085,0.00010104522702105,0.0001094666666667,67.371517165245
35.990000000001,0.00010973333333337,67.066755260453,0.00045110325581326,0.00010134998892581,0.00010973333333337,67.066755260483
36.000000000001,0.00010999999999994,66.761993355802,0.00045140801771791,0.00010165475083046,0.00010999999999994,66.761993355833
36.010000000001,0.00010957499999994,63.361993355803,0.00045140801771791,0.00010165475083046,0.00010957499999994,63.361993355834
36.020000000001,0.00010914999999994,59.961993355803,0.00045140801771791,0.00010165475083046,0.00010914999999994,59.961993355834
36.030000000001,0.00010872499999994,56.561993355804,0.00045140801771791,0.00010165475083046,0.00010872499999994,56.561993355835
36.040000000001,0.00010829999999994,53.161993355805,0.00045140801771791,0.00010165475083046,0.00010829999999994,53.161993355836
36.050000000001,0.00010787499999994,49.761993355805,0.00045140801771791,0.00010165475083046,0.00010787499999994,49.761993355836
36.060000000001,0.00010744999999994,46.361993355806,0.00045140801771791,0.00010165475083046,0.00010744999999994,46.361993355837
36.070000000001,0.00010702499999994,42.961993355807,0.00045140801771791,0.00010165475083046,0.00010702499999994,42.961993355838
36.080000000001,0.00010659999999994,39.561993355807,0.00045140801771791,0.00010165475083046,0.00010659999999994,39.561993355838
36.090000000001,0.00010617499999994,36.161993355808,0.00045140801771791,0.00010165475083046,0.00010617499999994,36.161993355839
36.100000000001,0.00010574999999994,32.761993355809,0.00045140801771791,0.00010165475083046,0.00010574999999994,32.76199335584
36.110000000001,0.00010532499999994,29.361993355809,0.00045140801771791,0.00010165475083046,0.00010532499999994,29.36199335584
36.120000000001,0.00010489999999994,25.96199335581,0.00045140801771791,0.00010165475083046,0.00010489999999994,25.961993355841
36.130000000001,0.00010447499999994,22.561993355811,0.00045140801771791,0.00010165475083046,0.00010447499999994,22.561993355842
36.140000000001,0.00010404999999994,19.161993355812,0.00045140801771791,0.00010165475083046,0.00010404999999994,19.161993355842
36.150000000001,0.00010362499999994,15.761993355812,0.00045140801771791,0.00010165475083046,0.00010362499999994,15.761993355843
36.160000000001,0.00010319999999994,12.361993355813,0.00045140801771791,0.00010165475083046,0.00010319999999994,12.361993355844
36.170000000001,0.00010277499999994,8.9619933558135,0.00045140801771791,0.00010165475083046,0.00010277499999994,8.9619933558443
36.180000000001,0.00010234999999994,5.5619933558142,0.00045140801771791,0.00010165475083046,0.00010234999999994,5.561993355845
36.190000000001,0.00010192499999994,2.1619933558149,0.00045140801771791,0.00010165475083046,0.00010192499999994,2.1619933558457
36.200000000001,0.00010149999999994,1.2380066441845,0.00045140801771791,0.00010165475083046,0.00010149999999994,-1.2380066441537
36.210000000001,0.00010107499999994,4.6380066441838,0.00045140801771791,0.00010165475083046,0.00010107499999994,-4.638006644153
36.220000000001,0.00010064999999994,8.0380066441831,0.00045140801771791,0.00010165475083046,0.00010064999999994,-8.0380066441523
36.230000000001,0.00010022499999994,11.438006644182,0.00045140801771791,0.00010165475083046,0.00010022499999994,-11.438006644152
36.240000000001,9.9799999999942e-05,14.838006644182,0.00045140801771791,0.00010165475083046,9.9799999999942e-05,-14.838006644151
36.250000000001,9.9374999999942e-05,18.238006644181,0.00045140801771791,0.00010165475083046,9.9374999999942e-05,-18.23800664415
36.260000000001,9.8949999999942e-05,21.63800664418,0.00045140801771791,0.00010165475083046,9.8949999999942e-05,-21.638006644149
36.270000000001,9.8524999999942e-05,25.03800664418,0.00045140801771791,0.00010165475083046,9.8524999999942e-05,-25.038006644149
36.280000000001,9.8099999999943e-05,25.525049834202,0.00045177213731912,0.00010129063122925,9.8099999999943e-05,-25.52504983447
36.290000000001,9.7674999999943e-05,25.762259136528,0.00045216748615633,0.00010089528239204,9.7674999999943e-05,-25.762259136786
36.300000000001,9.7249999999943e-05,25.999468438853,0.00045256283499354,0.00010049993355483,9.7249999999943e-05,-25.999468439112
36.310000000001,9.6824999999943e-05,26.236677741179,0.00045295818383075,0.00010010458471762,9.6824999999943e-05,-26.236677741437
36.320000000001,9.6399999999943e-05,26.473887043505,0.00045335353266796,9.9709235880413e-05,9.6399999999943e-05,-26.473887043763
36.330000000001,9.5974999999943e-05,26.71109634583,0.00045374888150517,9.9313887043204e-05,9.5974999999943e-05,-26.711096346088
36.340000000001,9.5549999999943e-05,26.948305648156,0.00045414423034238,9.8918538205995e-05,9.5549999999943e-05,-26.948305648414
36.350000000001,9.5124999999943e-05,27.185514950481,0.00045453957917959,9.8523189368786e-05,9.5124999999943e-05,-27.185514950739
36.360000000001,9.4699999999943e-05,27.422724252807,0.0004549349280168,9.8127840531577e-05,9.4699999999943e-05,-27.422724253065
36.370000000001,9.4274999999943e-05,27.659933555132,0.00045533027685401,9.7732491694367e-05,9.4274999999943e-05,-27.659933555391
36.380000000001,9.3849999999943e-05,27.897142857458,0.00045572562569122,9.7337142857158e-05,9.3849999999943e-05,-27.897142857716
36.390000000001,9.3424999999944e-05,28.134352159783,0.00045612097452843,9.6941794019949e-05,9.3424999999944e-05,-28.134352160042
36.400000000001,9.2999999999944e-05,28.371561462109,0.00045651632336564,9.654644518274e-05,9.2999999999944e-05,-28.371561462367
36.410000000001,9.2574999999944e-05,28.608770764434,0.00045691167220284,9.615109634553e-05,9.2574999999944e-05,-28.608770764693
36.420000000001,9.2149999999944e-05,28.84598006676,0.00045730702104005,9.5755747508321e-05,9.2149999999944e-05,-28.845980067018
36.430000000001,9.1724999999944e-05,29.083189369085,0.00045770236987726,9.5360398671112e-05,9.1724999999944e-05,-29.083189369344
36.440000000001,9.1299999999944e-05,29.320398671411,0.00045809771871447,9.4965049833903e-05,9.1299999999944e-05,-29.320398671669
36.450000000001,9.0874999999944e-05,29.557607973736,0.00045849306755168,9.4569700996693e-05,9.0874999999944e-05,-29.557607973995
36.460000000001,9.0449999999944e-05,29.794817276062,0.00045888841638889,9.4174352159484e-05,9.0449999999944e-05,-29.79481727632
36.470000000001,9.0024999999944e-05,30.032026578388,0.0004592837652261,9.3779003322275e-05,9.0024999999944e-05,-30.032026578646
36.480000000001,8.9599999999944e-05,30.269235880713,0.00045967911406331,9.3383654485066e-05,8.9599999999944e-05,-30.269235880971
36.490000000001,8.9174999999944e-05,30.506445183039,0.00046007446290052,9.2988305647857e-05,8.9174999999944e-05,-30.506445183297
36.500000000001,8.8749999999944e-05,30.743654485364,0.00046046981173773,9.2592956810647e-05,8.8749999999944e-05,-30.743654485622
36.510000000001,8.8324999999945e-05,30.98086378769,0.00046086516057494,9.2197607973438e-05,8.8324999999945e-05,-30.980863787948
36.520000000001,8.7899999999945e-05,31.218073090015,0.00046126050941215,9.1802259136229e-05,8.7899999999945e-05,-31.218073090274
36.530000000001,8.7474999999945e-05,31.455282392341,0.00046165585824936,9.140691029902e-05,8.7474999999945e-05,-31.455282392599
36.540000000001,8.7049999999945e-05,31.692491694666,0.00046205120708656,9.101156146181e-05,8.7049999999945e-05,-31.692491694925
36.550000000001,8.6624999999945e-05,31.929700996992,0.00046244655592377,9.0616212624601e-05,8.6624999999945e-05,-31.92970099725
36.560000000001,8.6199999999945e-05,32.166910299317,0.00046284190476098,9.0220863787392e-05,8.6199999999945e-05,-32.166910299576
36.570000000001,8.5774999999945e-05,32.404119601643,0.00046323725359819,8.9825514950183e-05,8.5774999999945e-05,-32.404119601901
36.580000000001,8.5349999999945e-05,32.641328903968,0.0004636326024354,8.9430166112974e-05,8.5349999999945e-05,-32.641328904227
36.590000000001,8.4924999999945e-05,32.878538206294,0.00046402795127261,8.9034817275764e-05,8.4924999999945e-05,-32.878538206552
36.600000000001,8.4499999999945e-05,33.115747508619,0.00046442330010982,8.8639468438555e-05,8.4499999999945e-05,-33.115747508878
36.610000000001,8.4074999999945e-05,33.352956810945,0.00046481864894703,8.8244119601346e-05,8.4074999999945e-05,-33.352956811203
36.620000000001,8.3649999999945e-05,33.590166113271,0.00046521399778424,8.7848770764137e-05,8.3649999999945e-05,-33.590166113529
36.630000000001,8.3224999999946e-05,33.827375415596,0.00046560934662145,8.7453421926927e-05,8.3224999999946e-05,-33.827375415854
36.640000000001,8.2799999999946e-05,34.064584717922,0.00046600469545866,8.7058073089718e-05,8.2799999999946e-05,-34.06458471818
36.650000000001,8.2374999999946e-05,34.301794020247,0.00046640004429587,8.6662724252509e-05,8.2374999999946e-05,-34.301794020506
36.660000000001,8.1949999999946e-05,34.539003322573,0.00046679539313308,8.62673754153e-05,8.1949999999946e-05,-34.539003322831
36.670000000001,8.1524999999946e-05,34.776212624898,0.00046719074197028,8.5872026578091e-05,8.1524999999946e-05,-34.776212625157
36.680000000001,8.1099999999946e-05,35.013421927224,0.00046758609080749,8.5476677740881e-05,8.1099999999946e-05,-35.013421927482
36.690000000001,8.0674999999946e-05,35.250631229549,0.0004679814396447,8.5081328903672e-05,8.0674999999946e-05,-35.250631229808
36.700000000001,8.0249999999946e-05,35.487840531875,0.00046837678848191,8.4685980066463e-05,8.0249999999946e-05,-35.487840532133
36.710000000001,7.9824999999946e-05,35.7250498342,0.00046877213731912,8.4290631229254e-05,7.9824999999946e-05,-35.725049834459
36.720000000001,7.9399999999946e-05,35.962259136526,0.00046916748615633,8.3895282392044e-05,7.9399999999946e-05,-35.962259136784
36.730000000001,7.8974999999946e-05,36.199468438851,0.00046956283499354,8.3499933554835e-05,7.8974999999946e-05,-36.19946843911
36.740000000001,7.8549999999946e-05,36.436677741177,0.00046995818383075,8.3104584717626e-05,7.8549999999946e-05,-36.436677741435
36.750000000001,7.8124999999947e-05,36.673887043502,0.00047035353266796,8.2709235880417e-05,7.8124999999947e-05,-36.673887043761
36.760000000001,7.7699999999947e-05,36.911096345828,0.00047074888150517,8.2313887043208e-05,7.7699999999947e-05,-36.911096346086
36.770000000001,7.7274999999947e-05,37.148305648154,0.00047114423034238,8.1918538205998e-05,7.7274999999947e-05,-37.148305648412
36.780000000001,7.6849999999947e-05,37.385514950479,0.00047153957917959,8.1523189368789e-05,7.6849999999947e-05,-37.385514950737
36.790000000001,7.6424999999947e-05,37.622724252805,0.0004719349280168,8.112784053158e-05,7.6424999999947e-05,-37.622724253063
36.800000000001,7.5999999999947e-05,37.85993355513,0.000472330276854,8.0732491694371e-05,7.5999999999947e-05,-37.859933555389
36.810000000001,7.5574999999947e-05,38.097142857456,0.00047272562569121,8.0337142857161e-05,7.5574999999947e-05,-38.097142857714
36.820000000001,7.5149999999947e-05,38.334352159781,0.00047312097452842,7.9941794019952e-05,7.5149999999947e-05,-38.33435216004
36.830000000001,7.4724999999947e-05,38.571561462107,0.00047351632336563,7.9546445182743e-05,7.4724999999947e-05,-38.571561462365
36.840000000001,7.4299999999947e-05,38.808770764432,0.00047391167220284,7.9151096345534e-05,7.4299999999947e-05,-38.808770764691
36.850000000001,7.3874999999947e-05,39.045980066758,0.00047430702104005,7.8755747508325e-05,7.3874999999947e-05,-39.045980067016
36.860000000001,7.3449999999947e-05,39.283189369083,0.00047470236987726,7.8360398671115e-05,7.3449999999947e-05,-39.283189369342
36.870000000001,7.3024999999948e-05,39.520398671409,0.00047509771871447,7.7965049833906e-05,7.3024999999948e-05,-39.520398671667
36.880000000001,7.2599999999948e-05,39.757607973734,0.00047549306755168,7.7569700996697e-05,7.2599999999948e-05,-39.757607973993
36.890000000001,7.2174999999948e-05,39.99481727606,0.00047588841638889,7.7174352159488e-05,7.2174999999948e-05,-39.994817276318
36.900000000001,7.1749999999948e-05,40.232026578386,0.0004762837652261,7.6779003322278e-05,7.1749999999948e-05,-40.232026578644
36.910000000001,7.1324999999948e-05,40.469235880711,0.00047667911406331,7.6383654485069e-05,7.1324999999948e-05,-40.469235880969
36.920000000001,7.0899999999948e-05,40.706445183037,0.00047707446290052,7.598830564786e-05,7.0899999999948e-05,-40.706445183295
36.930000000001,7.0474999999948e-05,40.943654485362,0.00047746981173772,7.5592956810651e-05,7.0474999999948e-05,-40.94365448562
36.940000000001,7.0049999999948e-05,41.180863787688,0.00047786516057493,7.5197607973442e-05,7.0049999999948e-05,-41.180863787946
36.950000000001,6.9624999999948e-05,41.418073090013,0.00047826050941214,7.4802259136232e-05,6.9624999999948e-05,-41.418073090272
36.960000000001,6.9199999999948e-05,41.655282392339,0.00047865585824935,7.4406910299023e-05,6.9199999999948e-05,-41.655282392597
36.970000000001,6.8774999999948e-05,41.892491694664,0.00047905120708656,7.4011561461814e-05,6.8774999999948e-05,-41.892491694923
36.980000000001,6.8349999999948e-05,42.12970099699,0.00047944655592377,7.3616212624605e-05,6.8349999999949e-05,-42.129700997248
36.990000000001,6.7924999999949e-05,42.366910299315,0.00047984190476098,7.3220863787395e-05,6.7924999999949e-05,-42.366910299574
37.000000000001,6.7499999999949e-05,42.604119601641,0.00048023725359819,7.2825514950186e-05,6.7499999999949e-05,-42.604119601899
37.010000000001,6.7074999999949e-05,42.841328903966,0.0004806326024354,7.2430166112977e-05,6.7074999999949e-05,-42.841328904225
37.020000000001,6.6649999999949e-05,43.078538206292,0.00048102795127261,7.2034817275768e-05,6.6649999999949e-05,-43.07853820655
37.030000000001,6.6224999999949e-05,43.315747508617,0.00048142330010982,7.1639468438559e-05,6.6224999999949e-05,-43.315747508876
37.040000000001,6.5799999999949e-05,43.552956810943,0.00048181864894703,7.1244119601349e-05,6.5799999999949e-05,-43.552956811201
37.050000000001,6.5374999999949e-05,43.790166113269,0.00048221399778423,7.084877076414e-05,6.5374999999949e-05,-43.790166113527
37.060000000001,6.4949999999949e-05,44.027375415594,0.00048260934662144,7.0453421926931e-05,6.4949999999949e-05,-44.027375415852
37.070000000001,6.4524999999949e-05,44.26458471792,0.00048300469545865,7.0058073089722e-05,6.4524999999949e-05,-44.264584718178
37.080000000001,6.4099999999949e-05,44.501794020245,0.00048340004429586,6.9662724252512e-05,6.4099999999949e-05,-44.501794020503
37.090000000001,6.3674999999949e-05,44.739003322571,0.00048379539313307,6.9267375415303e-05,6.3674999999949e-05,-44.739003322829
37.100000000001,6.324999999995e-05,44.976212624896,0.00048419074197028,6.8872026578094e-05,6.324999999995e-05,-44.976212625155
37.110000000001,6.282499999995e-05,45.213421927222,0.00048458609080749,6.8476677740885e-05,6.282499999995e-05,-45.21342192748
37.120000000001,6.239999999995e-05,45.450631229547,0.0004849814396447,6.8081328903676e-05,6.239999999995e-05,-45.450631229806
37.130000000001,6.197499999995e-05,45.687840531873,0.00048537678848191,6.7685980066466e-05,6.197499999995e-05,-45.687840532131
37.140000000001,6.154999999995e-05,45.925049834198,0.00048577213731912,6.7290631229257e-05,6.154999999995e-05,-45.925049834457
37.150000000001,6.112499999995e-05,46.162259136524,0.00048616748615633,6.6895282392048e-05,6.112499999995e-05,-46.162259136782
37.160000000001,6.069999999995e-05,46.399468438849,0.00048656283499354,6.6499933554839e-05,6.069999999995e-05,-46.399468439108
37.170000000001,6.027499999995e-05,46.636677741175,0.00048695818383075,6.6104584717629e-05,6.027499999995e-05,-46.636677741433
37.180000000001,5.984999999995e-05,46.8738870435,0.00048735353266795,6.570923588042e-05,5.984999999995e-05,-46.873887043759
37.190000000001,5.942499999995e-05,47.111096345826,0.00048774888150516,6.5313887043211e-05,5.942499999995e-05,-47.111096346084
37.200000000001,5.899999999995e-05,47.348305648152,0.00048814423034237,6.4918538206002e-05,5.899999999995e-05,-47.34830564841
37.210000000001,5.857499999995e-05,47.585514950477,0.00048853957917958,6.4523189368792e-05,5.857499999995e-05,-47.585514950735
37.220000000001,5.8149999999951e-05,47.822724252803,0.00048893492801679,6.4127840531583e-05,5.8149999999951e-05,-47.822724253061
37.230000000001,5.7724999999951e-05,48.059933555128,0.000489330276854,6.3732491694374e-05,5.7724999999951e-05,-48.059933555386
37.240000000001,5.7299999999951e-05,48.297142857454,0.00048972562569121,6.3337142857165e-05,5.7299999999951e-05,-48.297142857712
37.250000000001,5.6874999999951e-05,48.534352159779,0.00049012097452842,6.2941794019956e-05,5.6874999999951e-05,-48.534352160038
37.260000000001,5.6449999999951e-05,48.771561462105,0.00049051632336563,6.2546445182746e-05,5.6449999999951e-05,-48.771561462363
37.270000000001,5.6024999999951e-05,49.00877076443,0.00049091167220284,6.2151096345537e-05,5.6024999999951e-05,-49.008770764689
37.280000000001,5.5599999999951e-05,49.245980066756,0.00049130702104005,6.1755747508328e-05,5.5599999999951e-05,-49.245980067014
37.290000000001,5.5174999999951e-05,49.483189369081,0.00049170236987726,6.1360398671119e-05,5.5174999999951e-05,-49.48318936934
37.300000000001,5.4749999999951e-05,49.720398671407,0.00049209771871447,6.0965049833909e-05,5.4749999999951e-05,-49.720398671665
37.310000000001,5.4324999999951e-05,49.957607973732,0.00049249306755167,6.05697009967e-05,5.4324999999951e-05,-49.957607973991
37.320000000001,5.3899999999951e-05,50.194817276058,0.00049288841638888,6.0174352159491e-05,5.3899999999951e-05,-50.194817276316
37.330000000001,5.3474999999951e-05,50.432026578383,0.00049328376522609,5.9779003322282e-05,5.3474999999951e-05,-50.432026578642
37.340000000001,5.3049999999952e-05,50.669235880709,0.0004936791140633,5.9383654485073e-05,5.3049999999952e-05,-50.669235880967
37.350000000001,5.2624999999952e-05,50.906445183035,0.00049407446290051,5.8988305647863e-05,5.2624999999952e-05,-50.906445183293
37.360000000001,5.2199999999952e-05,51.14365448536,0.00049446981173772,5.8592956810654e-05,5.2199999999952e-05,-51.143654485618
37.370000000001,5.1774999999952e-05,51.380863787686,0.00049486516057493,5.8197607973445e-05,5.1774999999952e-05,-51.380863787944
37.380000000001,5.1349999999952e-05,51.618073090011,0.00049526050941214,5.7802259136236e-05,5.1349999999952e-05,-51.618073090269
37.390000000001,5.0924999999952e-05,51.855282392337,0.00049565585824935,5.7406910299026e-05,5.0924999999952e-05,-51.855282392595
37.400000000001,5.0499999999952e-05,52.092491694662,0.00049605120708656,5.7011561461817e-05,5.0499999999952e-05,-52.092491694921
37.410000000001,5.0074999999952e-05,52.329700996988,0.00049644655592377,5.6616212624608e-05,5.0074999999952e-05,-52.329700997246
37.420000000001,4.9649999999952e-05,52.566910299313,0.00049684190476098,5.6220863787399e-05,4.9649999999952e-05,-52.566910299572
37.430000000001,4.9224999999952e-05,52.804119601639,0.00049723725359819,5.582551495019e-05,4.9224999999952e-05,-52.804119601897
37.440000000001,4.8799999999952e-05,53.041328903964,0.00049763260243539,5.543016611298e-05,4.8799999999952e-05,-53.041328904223
37.450000000001,4.8374999999952e-05,53.27853820629,0.0004980279512726,5.5034817275771e-05,4.8374999999952e-05,-53.278538206548
37.460000000001,4.7949999999953e-05,53.515747508615,0.00049842330010981,5.4639468438562e-05,4.7949999999953e-05,-53.515747508874
37.470000000001,4.7524999999953e-05,53.752956810941,0.00049881864894702,5.4244119601353e-05,4.7524999999953e-05,-53.752956811199
37.480000000001,4.7099999999953e-05,53.990166113266,0.00049921399778423,5.3848770764143e-05,4.7099999999953e-05,-53.990166113525
37.490000000001,4.6674999999953e-05,54.227375415592,0.00049960934662144,5.3453421926934e-05,4.6674999999953e-05,-54.22737541585
37.500000000001,4.6249999999953e-05,54.464584717918,0.00050000469545865,5.3058073089725e-05,4.6249999999953e-05,-54.464584718176
37.510000000001,4.5824999999953e-05,54.701794020243,0.00050040004429586,5.2662724252516e-05,4.5824999999953e-05,-54.701794020501
37.520000000001,4.5399999999953e-05,54.939003322569,0.00050079539313307,5.2267375415307e-05,4.5399999999953e-05,-54.939003322827
37.530000000001,4.4974999999953e-05,55.176212624894,0.00050119074197028,5.1872026578097e-05,4.4974999999953e-05,-55.176212625153
37.540000000001,4.4549999999953e-05,55.41342192722,0.00050158609080749,5.1476677740888e-05,4.4549999999953e-05,-55.413421927478
37.550000000001,4.4124999999953e-05,55.650631229545,0.0005019814396447,5.1081328903679e-05,4.4124999999953e-05,-55.650631229804
37.560000000001,4.3699999999953e-05,55.887840531871,0.00050237678848191,5.068598006647e-05,4.3699999999953e-05,-55.887840532129
37.570000000001,4.3274999999953e-05,56.125049834196,0.00050277213731911,5.029063122926e-05,4.3274999999953e-05,-56.125049834455
37.580000000001,4.2849999999954e-05,56.362259136522,0.00050316748615632,4.9895282392051e-05,4.2849999999954e-05,-56.36225913678
37.590000000001,4.2424999999954e-05,56.599468438847,0.00050356283499353,4.9499933554842e-05,4.2424999999954e-05,-56.599468439106
37.600000000001,4.1999999999954e-05,56.836677741173,0.00050395818383074,4.9104584717633e-05,4.1999999999954e-05,-56.836677741431
37.610000000001,4.1574999999954e-05,57.073887043498,0.00050435353266795,4.8709235880424e-05,4.1574999999954e-05,-57.073887043757
37.620000000001,4.1149999999954e-05,57.311096345824,0.00050474888150516,4.8313887043214e-05,4.1149999999954e-05,-57.311096346082
37.630000000001,4.0724999999954e-05,57.54830564815,0.00050514423034237,4.7918538206005e-05,4.0724999999954e-05,-57.548305648408
37.640000000001,4.0299999999954e-05,57.785514950475,0.00050553957917958,4.7523189368796e-05,4.0299999999954e-05,-57.785514950733
37.650000000001,3.9874999999954e-05,58.022724252801,0.00050593492801679,4.7127840531587e-05,3.9874999999954e-05,-58.022724253059
37.660000000001,3.9449999999954e-05,58.259933555126,0.000506330276854,4.6732491694377e-05,3.9449999999954e-05,-58.259933555384
37.670000000001,3.9024999999954e-05,58.497142857452,0.00050672562569121,4.6337142857168e-05,3.9024999999954e-05,-58.49714285771
37.680000000001,3.8599999999954e-05,58.734352159777,0.00050712097452842,4.5941794019959e-05,3.8599999999954e-05,-58.734352160036
37.690000000001,3.8174999999954e-05,58.971561462103,0.00050751632336563,4.554644518275e-05,3.8174999999955e-05,-58.971561462361
37.700000000001,3.7749999999955e-05,59.208770764428,0.00050791167220283,4.5151096345541e-05,3.7749999999955e-05,-59.208770764687
37.710000000001,3.7324999999955e-05,59.445980066754,0.00050830702104004,4.4755747508331e-05,3.7324999999955e-05,-59.445980067012
37.720000000001,3.6899999999955e-05,59.683189369079,0.00050870236987725,4.4360398671122e-05,3.6899999999955e-05,-59.683189369338
37.730000000001,3.6474999999955e-05,59.920398671405,0.00050909771871446,4.3965049833913e-05,3.6474999999955e-05,-59.920398671663
37.740000000001,3.6049999999955e-05,60.15760797373,0.00050949306755167,4.3569700996704e-05,3.6049999999955e-05,-60.157607973989
37.750000000001,3.5624999999955e-05,60.394817276056,0.00050988841638888,4.3174352159494e-05,3.5624999999955e-05,-60.394817276314
37.760000000001,3.5199999999955e-05,60.632026578381,0.00051028376522609,4.2779003322285e-05,3.5199999999955e-05,-60.63202657864
37.770000000001,3.4774999999955e-05,60.869235880707,0.0005106791140633,4.2383654485076e-05,3.4774999999955e-05,-60.869235880965
37.780000000001,3.4349999999955e-05,61.106445183033,0.00051107446290051,4.1988305647867e-05,3.4349999999955e-05,-61.106445183291
37.790000000001,3.3924999999955e-05,61.343654485358,0.00051146981173772,4.1592956810658e-05,3.3924999999955e-05,-61.343654485616
37.800000000001,3.3499999999955e-05,61.580863787684,0.00051186516057493,4.1197607973448e-05,3.3499999999955e-05,-61.580863787942
37.810000000001,3.3074999999956e-05,61.818073090009,0.00051226050941214,4.0802259136239e-05,3.3074999999956e-05,-61.818073090267
37.820000000001,3.2649999999956e-05,62.055282392335,0.00051265585824934,4.040691029903e-05,3.2649999999956e-05,-62.055282392593
37.830000000001,3.2224999999956e-05,62.29249169466,0.00051305120708655,4.0011561461821e-05,3.2224999999956e-05,-62.292491694919
37.840000000001,3.1799999999956e-05,62.529700996986,0.00051344655592376,3.9616212624611e-05,3.1799999999956e-05,-62.529700997244
37.850000000001,3.1374999999956e-05,62.766910299311,0.00051384190476097,3.9220863787402e-05,3.1374999999956e-05,-62.76691029957
37.860000000001,3.0949999999956e-05,63.004119601637,0.00051423725359818,3.8825514950193e-05,3.0949999999956e-05,-63.004119601895
37.870000000001,3.0524999999956e-05,63.241328903962,0.00051463260243539,3.8430166112984e-05,3.0524999999956e-05,-63.241328904221
37.880000000001,3.0099999999956e-05,63.478538206288,0.0005150279512726,3.8034817275775e-05,3.0099999999956e-05,-63.478538206546
37.890000000001,2.9674999999956e-05,63.715747508613,0.00051542330010981,3.7639468438565e-05,2.9674999999956e-05,-63.715747508872
37.900000000001,2.9249999999956e-05,63.952956810939,0.00051581864894702,3.7244119601356e-05,2.9249999999956e-05,-63.952956811197
37.910000000001,2.8824999999956e-05,64.190166113264,0.00051621399778423,3.6848770764147e-05,2.8824999999956e-05,-64.190166113523
37.920000000001,2.8399999999956e-05,64.42737541559,0.00051660934662144,3.6453421926938e-05,2.8399999999956e-05,-64.427375415848
37.930000000001,2.7974999999957e-05,64.664584717916,0.00051700469545865,3.6058073089728e-05,2.7974999999957e-05,-64.664584718174
37.940000000001,2.7549999999957e-05,64.901794020241,0.00051740004429586,3.5662724252519e-05,2.7549999999957e-05,-64.901794020499
37.950000000001,2.7124999999957e-05,65.139003322567,0.00051779539313306,3.526737541531e-05,2.7124999999957e-05,-65.139003322825
37.960000000001,2.6699999999957e-05,65.376212624892,0.00051819074197027,3.4872026578101e-05,2.6699999999957e-05,-65.37621262515
37.970000000001,2.6274999999957e-05,65.613421927218,0.00051858609080748,3.4476677740892e-05,2.6274999999957e-05,-65.613421927476
37.980000000001,2.5849999999957e-05,65.850631229543,0.00051898143964469,3.4081328903682e-05,2.5849999999957e-05,-65.850631229802
37.990000000001,2.5424999999957e-05,66.087840531869,0.0005193767884819,3.3685980066473e-05,2.5424999999957e-05,-66.087840532127
38.000000000001,2.4999999999957e-05,66.325049834194,0.00051977213731911,3.3290631229264e-05,2.4999999999957e-05,-66.325049834453
38.010000000001,2.4574999999957e-05,66.56225913652,0.00052016748615632,3.2895282392055e-05,2.4574999999957e-05,-66.562259136778
38.020000000001,2.4149999999957e-05,66.799468438845,0.00052056283499353,3.2499933554845e-05,2.4149999999957e-05,-66.799468439104
38.030000000001,2.3724999999957e-05,66.313754153178,0.0005210485492792,3.2014219269178e-05,2.3724999999957e-05,-66.313754153766
38.040000000001,2.3299999999957e-05,65.828039867462,0.00052153426356491,3.1528504983463e-05,2.3299999999957e-05,-65.82803986804
38.050000000001,2.2874999999958e-05,65.342325581747,0.00052201997785063,3.1042790697747e-05,2.2874999999958e-05,-65.342325582313
38.060000000001,2.2449999999958e-05,64.856611296031,0.00052250569213634,3.0557076412031e-05,2.2449999999958e-05,-64.856611296587
38.070000000001,2.2024999999958e-05,64.370897010315,0.00052299140642206,3.0071362126315e-05,2.2024999999958e-05,-64.37089701086
38.080000000001,2.1599999999958e-05,63.8851827246,0.00052347712070778,2.95856478406e-05,2.1599999999958e-05,-63.885182725134
38.090000000001,2.1174999999958e-05,63.399468438884,0.00052396283499349,2.9099933554884e-05,2.1174999999958e-05,-63.399468439407
38.100000000001,2.0749999999958e-05,62.913754153168,0.00052444854927921,2.8614219269168e-05,2.0749999999958e-05,-62.91375415368
38.110000000001,2.0324999999958e-05,62.428039867452,0.00052493426356492,2.8128504983452e-05,2.0324999999958e-05,-62.428039867952
38.120000000001,1.9899999999958e-05,61.942325581736,0.00052541997785064,2.7642790697736e-05,1.9899999999958e-05,-61.942325582225
38.130000000001,1.9474999999958e-05,61.456611296021,0.00052590569213635,2.7157076412021e-05,1.9474999999958e-05,-61.456611296498
38.140000000001,1.9049999999958e-05,60.970897010305,0.00052639140642207,2.6671362126305e-05,1.9049999999958e-05,-60.97089701077
38.150000000001,1.8624999999958e-05,60.485182724589,0.00052687712070779,2.6185647840589e-05,1.8624999999958e-05,-60.485182725043
38.160000000001,1.8199999999958e-05,59.999468438873,0.0005273628349935,2.5699933554873e-05,1.8199999999958e-05,-59.999468439315
38.170000000001,1.7774999999959e-05,59.513754153157,0.00052784854927922,2.5214219269157e-05,1.7774999999959e-05,-59.513754153587
38.180000000001,1.7349999999959e-05,59.028039867441,0.00052833426356493,2.4728504983441e-05,1.7349999999959e-05,-59.028039867859
38.190000000001,1.6924999999959e-05,58.542325581725,0.00052881997785065,2.4242790697725e-05,1.6924999999959e-05,-58.542325582131
38.200000000001,1.6499999999959e-05,58.056611296009,0.00052930569213637,2.3757076412009e-05,1.6499999999959e-05,-58.056611296403
38.210000000001,1.6074999999959e-05,57.570897010293,0.00052979140642208,2.3271362126293e-05,1.6074999999959e-05,-57.570897010675
38.220000000001,1.5649999999959e-05,57.085182724577,0.0005302771207078,2.2785647840578e-05,1.5649999999959e-05,-57.085182724947
38.230000000001,1.5224999999959e-05,56.599468438862,0.00053076283499351,2.2299933554862e-05,1.5224999999959e-05,-56.599468439219
38.240000000001,1.4799999999959e-05,56.113754153146,0.00053124854927923,2.1814219269146e-05,1.4799999999959e-05,-56.113754153491
38.250000000001,1.4374999999959e-05,55.62803986743,0.00053173426356495,2.132850498343e-05,1.4374999999959e-05,-55.628039867763
38.260000000001,1.3949999999959e-05,55.142325581714,0.00053221997785066,2.0842790697714e-05,1.3949999999959e-05,-55.142325582036
38.270000000001,1.3524999999959e-05,54.656611295998,0.00053270569213638,2.0357076411998e-05,1.3524999999959e-05,-54.656611296308
38.280000000001,1.3099999999959e-05,54.170897010282,0.00053319140642209,1.9871362126282e-05,1.3099999999959e-05,-54.17089701058
38.290000000001,1.267499999996e-05,53.685182724566,0.00053367712070781,1.9385647840566e-05,1.267499999996e-05,-53.685182724853
38.300000000001,1.224999999996e-05,53.19946843885,0.00053416283499352,1.889993355485e-05,1.224999999996e-05,-53.199468439125
38.310000000001,1.182499999996e-05,52.713754153135,0.00053464854927924,1.8414219269135e-05,1.182499999996e-05,-52.713754153398
38.320000000001,1.139999999996e-05,52.228039867419,0.00053513426356496,1.7928504983419e-05,1.139999999996e-05,-52.228039867671
38.330000000001,1.097499999996e-05,51.742325581703,0.00053561997785067,1.7442790697703e-05,1.097499999996e-05,-51.742325581944
38.340000000001,1.054999999996e-05,51.256611295987,0.00053610569213639,1.6957076411987e-05,1.054999999996e-05,-51.256611296218
38.350000000001,1.012499999996e-05,50.770897010272,0.0005365914064221,1.6471362126272e-05,1.012499999996e-05,-50.770897010491
38.360000000001,9.6999999999602e-06,50.285182724556,0.00053707712070782,1.5985647840556e-05,9.6999999999602e-06,-50.285182724765
38.370000000001,9.2749999999602e-06,49.79946843884,0.00053756283499353,1.549993355484e-05,9.2749999999602e-06,-49.799468439039
38.380000000001,8.8499999999603e-06,49.313754153125,0.00053804854927925,1.5014219269125e-05,8.8499999999603e-06,-49.313754153314
38.390000000001,8.4249999999604e-06,48.828039867409,0.00053853426356497,1.4528504983409e-05,8.4249999999604e-06,-48.828039867589
38.400000000001,7.9999999999605e-06,48.342325581694,0.00053901997785068,1.4042790697694e-05,7.9999999999605e-06,-48.342325581864
38.410000000001,7.5749999999606e-06,47.856611295978,0.0005395056921364,1.3557076411978e-05,7.5749999999606e-06,-47.856611296139
38.420000000001,7.1499999999607e-06,47.370897010263,0.00053999140642211,1.3071362126263e-05,7.1499999999607e-06,-47.370897010415
38.430000000001,6.7249999999608e-06,46.885182724547,0.00054047712070783,1.2585647840547e-05,6.7249999999608e-06,-46.885182724691
38.440000000001,6.2999999999608e-06,46.399468438832,0.00054096283499354,1.2099933554832e-05,6.2999999999608e-06,-46.399468438967
38.450000000001,5.8749999999609e-06,45.913754153117,0.00054144854927926,1.1614219269117e-05,5.8749999999609e-06,-45.913754153244
38.460000000001,5.449999999961e-06,45.428039867401,0.00054193426356497,1.1128504983401e-05,5.449999999961e-06,-45.428039867522
38.470000000001,5.0249999999611e-06,44.942325581686,0.00054241997785069,1.0642790697686e-05,5.0249999999611e-06,-44.942325581799
38.480000000001,4.5999999999612e-06,44.456611295971,0.0005429056921364,1.0157076411971e-05,4.5999999999612e-06,-44.456611296077
38.490000000001,4.1749999999613e-06,43.970897010256,0.00054339140642212,9.6713621262559e-06,4.1749999999613e-06,-43.970897010356
38.500000000001,3.7499999999613e-06,43.485182724541,0.00054387712070783,9.1856478405408e-06,3.7499999999613e-06,-43.485182724635
38.510000000001,3.3249999999614e-06,42.999468438826,0.00054436283499355,8.6999335548258e-06,3.3249999999614e-06,-42.999468438914
38.520000000001,2.8999999999615e-06,42.513754153111,0.00054484854927926,8.2142192691109e-06,2.8999999999615e-06,-42.513754153193
38.530000000001,2.4749999999616e-06,42.028039867396,0.00054533426356498,7.7285049833959e-06,2.4749999999616e-06,-42.028039867473
38.540000000001,2.0499999999617e-06,41.542325581681,0.00054581997785069,7.2427906976811e-06,2.0499999999617e-06,-41.542325581754
38.550000000001,1.6249999999618e-06,41.056611295966,0.00054630569213641,6.7570764119662e-06,1.6249999999618e-06,-41.056611296034
38.560000000001,1.1999999999619e-06,40.570897010251,0.00054679140642212,6.2713621262514e-06,1.1999999999619e-06,-40.570897010315
38.570000000001,7.7499999996194e-07,40.085182724537,0.00054727712070784,5.7856478405367e-06,7.7499999996194e-07,-40.085182724597
38.580000000001,3.4999999996202e-07,39.599468438822,0.00054776283499355,5.299933554822e-06,3.4999999996202e-07,-39.599468438878
38.590000000001,-7.5000000037895e-08,39.113754153107,0.00054824854927927,4.8142192691073e-06,-7.5000000037895e-08,-39.11375415316
38.600000000001,-5.0000000003781e-07,38.628039867393,0.00054873426356498,4.3285049833926e-06,-5.0000000003781e-07,-38.628039867442
38.610000000001,-9.2500000003773e-07,38.142325581678,0.0005492199778507,3.842790697678e-06,-9.2500000003773e-07,-38.142325581725
38.620000000001,-1.3500000000376e-06,37.656611295963,0.00054970569213641,3.3570764119634e-06,-1.3500000000376e-06,-37.656611296007
38.630000000001,-1.7750000000376e-06,37.170897010249,0.00055019140642213,2.8713621262489e-06,-1.7750000000376e-06,-37.17089701029
38.640000000001,-2.2000000000375e-06,36.685182724534,0.00055067712070784,2.3856478405344e-06,-2.2000000000375e-06,-36.685182724573
38.650000000001,-2.6250000000374e-06,36.19946843882,0.00055116283499356,1.8999335548199e-06,-2.6250000000374e-06,-36.199468438857
38.660000000001,-3.0500000000373e-06,35.713754153105,0.00055164854927927,1.4142192691054e-06,-3.0500000000373e-06,-35.71375415314
38.670000000001,-3.4750000000372e-06,35.228039867469,0.00055213426356491,9.2850498346877e-07,-3.4750000000372e-06,-35.228039868046
38.680000000001,-3.9000000000371e-06,34.742325581749,0.00055261997785063,4.4279069774878e-07,-3.9000000000371e-06,-34.742325582286
38.690000000001,-4.325000000037e-06,34.256611296028,0.00055310569213635,-4.292358797185e-08,-4.325000000037e-06,-34.25661129652
38.700000000001,-4.750000000037e-06,33.770897010307,0.00055359140642207,-5.2863787369319e-07,-4.750000000037e-06,-33.770897010749
38.710000000001,-5.1750000000369e-06,33.285182724585,0.00055407712070779,-1.0143521594153e-06,-5.1750000000369e-06,-33.285182724971
38.720000000001,-5.6000000000368e-06,32.79946843885,0.00055456283499352,-1.5000664451496e-06,-5.6000000000368e-06,-32.799468439096
38.730000000001,-6.0250000000367e-06,32.313754153128,0.00055504854927925,-1.9857807308721e-06,-6.0250000000367e-06,-32.313754153315
38.740000000001,-6.4500000000366e-06,31.828039867405,0.00055553426356497,-2.4714950165952e-06,-6.4500000000366e-06,-31.82803986753
38.750000000001,-6.8750000000365e-06,31.342325581681,0.00055601997785069,-2.9572093023192e-06,-6.8750000000365e-06,-31.342325581737
38.760000000001,-7.3000000000365e-06,30.856611295955,0.00055650569213642,-3.4429235880452e-06,-7.3000000000365e-06,-30.856611295929
38.770000000001,-7.7250000000364e-06,30.370897010231,0.00055699140642214,-3.9286378737692e-06,-7.7250000000364e-06,-30.370897010136
38.780000000001,-8.1500000000363e-06,30.370897010231,0.00055741640642214,-4.3536378737675e-06,-8.1500000000363e-06,-30.370897010149
38.790000000001,-8.5750000000362e-06,30.370897010231,0.00055784140642214,-4.7786378737674e-06,-8.5750000000362e-06,-30.370897010149
38.800000000001,-9.0000000000361e-06,30.370897010231,0.00055826640642214,-5.2036378737673e-06,-9.0000000000361e-06,-30.370897010149
38.810000000001,-9.425000000036e-06,30.370897010231,0.00055869140642214,-5.6286378737673e-06,-9.425000000036e-06,-30.370897010149
38.820000000001,-9.850000000036e-06,30.370897010231,0.00055911640642214,-6.0536378737672e-06,-9.850000000036e-06,-30.370897010149
38.830000000001,-1.0275000000036e-05,30.370897010231,0.00055954140642214,-6.4786378737671e-06,-1.0275000000036e-05,-30.370897010149
38.840000000001,-1.0700000000036e-05,30.370897010231,0.00055996640642214,-6.903637873767e-06,-1.0700000000036e-05,-30.370897010149
38.850000000001,-1.1125000000036e-05,30.370897010231,0.00056039140642214,-7.3286378737669e-06,-1.1125000000036e-05,-30.370897010149
38.860000000001,-1.1550000000036e-05,30.370897010231,0.00056081640642214,-7.7536378737668e-06,-1.1550000000036e-05,-30.370897010149
38.870000000001,-1.1975000000036e-05,30.370897010231,0.00056124140642214,-8.1786378737667e-06,-1.1975000000036e-05,-30.370897010149
38.880000000001,-1.2400000000035e-05,30.370897010231,0.00056166640642214,-8.6036378737667e-06,-1.2400000000035e-05,-30.370897010149
38.890000000001,-1.2825000000035e-05,30.370897010231,0.00056209140642214,-9.0286378737666e-06,-1.2825000000035e-05,-30.370897010149
38.900000000001,-1.3250000000035e-05,30.370897010231,0.00056251640642214,-9.4536378737665e-06,-1.3250000000035e-05,-30.370897010149
38.910000000001,-1.3675000000035e-05,30.370897010231,0.00056294140642214,-9.8786378737664e-06,-1.3675000000035e-05,-30.370897010149
38.920000000001,-1.4100000000035e-05,30.370897010231,0.00056336640642214,-1.0303637873766e-05,-1.4100000000035e-05,-30.370897010149
38.930000000001,-1.4525000000035e-05,30.370897010231,0.00056379140642214,-1.0728637873766e-05,-1.4525000000035e-05,-30.370897010149
38.940000000001,-1.4950000000035e-05,30.370897010231,0.00056421640642214,-1.1153637873766e-05,-1.4950000000035e-05,-30.370897010149
38.950000000001,-1.5375000000035e-05,30.370897010231,0.00056464140642214,-1.1578637873766e-05,-1.5375000000035e-05,-30.370897010149
38.960000000001,-1.5800000000035e-05,30.370897010231,0.00056506640642214,-1.2003637873766e-05,-1.5800000000035e-05,-30.370897010149
38.970000000001,-1.6225000000035e-05,30.370897010231,0.00056549140642214,-1.2428637873766e-05,-1.6225000000035e-05,-30.370897010149
38.980000000001,-1.6650000000035e-05,30.370897010231,0.00056591640642214,-1.2853637873766e-05,-1.6650000000035e-05,-30.370897010149
38.990000000001,-1.7075000000035e-05,30.370897010231,0.00056634140642214,-1.3278637873766e-05,-1.7075000000035e-05,-30.370897010149
39.000000000001,-1.7500000000034e-05,30.370897010231,0.00056676640642214,-1.3703637873766e-05,-1.7500000000034e-05,-30.370897010149
39.010000000001,-1.7925000000034e-05,30.370897010231,0.00056719140642214,-1.4128637873766e-05,-1.7925000000034e-05,-30.370897010149
39.020000000001,-1.8350000000034e-05,30.370897010231,0.00056761640642214,-1.4553637873765e-05,-1.8350000000034e-05,-30.370897010149
39.030000000001,-1.8775000000034e-05,30.370897010231,0.00056804140642214,-1.4978637873765e-05,-1.8775000000034e-05,-30.370897010149
39.040000000001,-1.9200000000034e-05,30.370897010231,0.00056846640642214,-1.5403637873765e-05,-1.9200000000034e-05,-30.370897010149
39.050000000001,-1.9625000000034e-05,30.370897010231,0.00056889140642214,-1.5828637873765e-05,-1.9625000000034e-05,-30.370897010149
39.060000000001,-2.0050000000034e-05,30.370897010231,0.00056931640642214,-1.6253637873765e-05,-2.0050000000034e-05,-30.370897010149
39.070000000001,-2.0475000000034e-05,30.370897010231,0.00056974140642214,-1.6678637873765e-05,-2.0475000000034e-05,-30.370897010149
39.080000000001,-2.0900000000034e-05,30.370897010231,0.00057016640642214,-1.7103637873765e-05,-2.0900000000034e-05,-30.370897010149
39.090000000001,-2.1325000000034e-05,30.370897010231,0.00057059140642214,-1.7528637873765e-05,-2.1325000000034e-05,-30.370897010149
39.100000000001,-2.1750000000034e-05,30.370897010231,0.00057101640642214,-1.7953637873765e-05,-2.1750000000034e-05,-30.370897010149
39.110000000001,-2.2175000000033e-05,30.370897010231,0.00057144140642214,-1.8378637873765e-05,-2.2175000000033e-05,-30.370897010149
39.120000000001,-2.2600000000033e-05,30.370897010231,0.00057186640642214,-1.8803637873765e-05,-2.2600000000033e-05,-30.370897010149
39.130000000001,-2.3025000000033e-05,30.370897010231,0.00057229140642214,-1.9228637873765e-05,-2.3025000000033e-05,-30.370897010149
39.140000000001,-2.3450000000033e-05,30.370897010231,0.00057271640642214,-1.9653637873764e-05,-2.3450000000033e-05,-30.370897010149
39.150000000001,-2.3875000000033e-05,30.370897010231,0.00057314140642214,-2.0078637873764e-05,-2.3875000000033e-05,-30.370897010149
39.160000000001,-2.4300000000033e-05,30.370897010231,0.00057356640642214,-2.0503637873764e-05,-2.4300000000033e-05,-30.370897010149
39.170000000001,-2.4725000000033e-05,30.370897010231,0.00057399140642214,-2.0928637873764e-05,-2.4725000000033e-05,-30.370897010149
39.180000000001,-2.5150000000033e-05,30.370897010231,0.00057441640642214,-2.1353637873764e-05,-2.5150000000033e-05,-30.370897010149
39.190000000001,-2.5575000000033e-05,30.370897010231,0.00057484140642214,-2.1778637873764e-05,-2.5575000000033e-05,-30.370897010149
39.200000000001,-2.6000000000033e-05,30.370897010231,0.00057526640642214,-2.2203637873764e-05,-2.6000000000033e-05,-30.370897010149
39.210000000001,-2.6425000000033e-05,30.370897010231,0.00057569140642214,-2.2628637873764e-05,-2.6425000000033e-05,-30.370897010149
39.220000000001,-2.6850000000033e-05,30.370897010231,0.00057611640642214,-2.3053637873764e-05,-2.6850000000033e-05,-30.370897010149
39.230000000001,-2.7275000000032e-05,30.370897010231,0.00057654140642214,-2.3478637873764e-05,-2.7275000000032e-05,-30.370897010149
39.240000000001,-2.7700000000032e-05,30.370897010231,0.00057696640642214,-2.3903637873764e-05,-2.7700000000032e-05,-30.370897010149
39.250000000001,-2.8125000000032e-05,30.370897010231,0.00057739140642214,-2.4328637873764e-05,-2.8125000000032e-05,-30.370897010149
39.260000000001,-2.8550000000032e-05,30.370897010231,0.00057781640642214,-2.4753637873763e-05,-2.8550000000032e-05,-30.370897010149
39.270000000001,-2.8975000000032e-05,30.370897010231,0.00057824140642214,-2.5178637873763e-05,-2.8975000000032e-05,-30.370897010149
39.280000000001,-2.9400000000032e-05,30.370897010231,0.00057866640642214,-2.5603637873763e-05,-2.9400000000032e-05,-30.370897010149
39.290000000001,-2.9825000000032e-05,30.370897010231,0.00057909140642214,-2.6028637873763e-05,-2.9825000000032e-05,-30.370897010149
39.300000000001,-3.0250000000032e-05,30.370897010231,0.00057951640642214,-2.6453637873763e-05,-3.0250000000032e-05,-30.370897010149
39.310000000001,-3.0675000000032e-05,30.370897010231,0.00057994140642214,-2.6878637873763e-05,-3.0675000000032e-05,-30.370897010149
39.320000000001,-3.1100000000032e-05,30.370897010231,0.00058036640642214,-2.7303637873763e-05,-3.1100000000032e-05,-30.370897010149
39.330000000001,-3.1525000000032e-05,30.370897010231,0.00058079140642214,-2.7728637873763e-05,-3.1525000000032e-05,-30.370897010149
39.340000000001,-3.1950000000032e-05,30.370897010231,0.00058121640642214,-2.8153637873763e-05,-3.1950000000032e-05,-30.370897010149
39.350000000001,-3.2375000000031e-05,30.370897010231,0.00058164140642214,-2.8578637873763e-05,-3.2375000000031e-05,-30.370897010149
39.360000000001,-3.2800000000031e-05,30.370897010231,0.00058206640642214,-2.9003637873763e-05,-3.2800000000031e-05,-30.370897010149
39.370000000001,-3.3225000000031e-05,30.370897010231,0.00058249140642214,-2.9428637873763e-05,-3.3225000000031e-05,-30.370897010149
39.380000000001,-3.3650000000031e-05,30.370897010231,0.00058291640642214,-2.9853637873762e-05,-3.3650000000031e-05,-30.370897010149
39.390000000001,-3.4075000000031e-05,30.370897010231,0.00058334140642214,-3.0278637873762e-05,-3.4075000000031e-05,-30.370897010149
39.400000000001,-3.4500000000031e-05,30.370897010231,0.00058376640642214,-3.0703637873762e-05,-3.4500000000031e-05,-30.370897010149
39.410000000001,-3.4925000000031e-05,30.370897010231,0.00058419140642214,-3.1128637873762e-05,-3.4925000000031e-05,-30.370897010149
39.420000000001,-3.5350000000031e-05,30.370897010231,0.00058461640642214,-3.1553637873762e-05,-3.5350000000031e-05,-30.370897010149
39.430000000001,-3.5775000000031e-05,30.370897010231,0.00058504140642214,-3.1978637873762e-05,-3.5775000000031e-05,-30.370897010149
39.440000000001,-3.6200000000031e-05,30.370897010231,0.00058546640642214,-3.2403637873762e-05,-3.6200000000031e-05,-30.370897010149
39.450000000001,-3.6625000000031e-05,30.370897010231,0.00058589140642214,-3.2828637873762e-05,-3.6625000000031e-05,-30.370897010149
39.460000000001,-3.7050000000031e-05,30.370897010231,0.00058631640642214,-3.3253637873762e-05,-3.7050000000031e-05,-30.370897010149
39.470000000001,-3.747500000003e-05,30.370897010231,0.00058674140642214,-3.3678637873762e-05,-3.747500000003e-05,-30.370897010149
39.480000000001,-3.790000000003e-05,30.370897010231,0.00058716640642214,-3.4103637873762e-05,-3.790000000003e-05,-30.370897010149
39.490000000001,-3.832500000003e-05,30.370897010231,0.00058759140642214,-3.4528637873762e-05,-3.832500000003e-05,-30.370897010149
39.500000000001,-3.875000000003e-05,30.370897010231,0.00058801640642214,-3.4953637873761e-05,-3.875000000003e-05,-30.370897010149
39.510000000001,-3.917500000003e-05,30.370897010231,0.00058844140642214,-3.5378637873761e-05,-3.917500000003e-05,-30.370897010149
39.520000000001,-3.960000000003e-05,30.370897010231,0.00058886640642214,-3.5803637873761e-05,-3.960000000003e-05,-30.370897010149
39.530000000001,-4.002500000003e-05,30.370897010231,0.00058929140642214,-3.6228637873761e-05,-4.002500000003e-05,-30.370897010149
39.540000000001,-4.045000000003e-05,30.370897010231,0.00058971640642214,-3.6653637873761e-05,-4.045000000003e-05,-30.370897010149
39.550000000001,-4.087500000003e-05,30.370897010231,0.00059014140642214,-3.7078637873761e-05,-4.087500000003e-05,-30.370897010149
39.560000000001,-4.130000000003e-05,30.370897010231,0.00059056640642214,-3.7503637873761e-05,-4.130000000003e-05,-30.370897010149
39.570000000001,-4.172500000003e-05,30.370897010231,0.00059099140642214,-3.7928637873761e-05,-4.172500000003e-05,-30.370897010149
39.580000000001,-4.215000000003e-05,30.370897010231,0.00059141640642214,-3.8353637873761e-05,-4.215000000003e-05,-30.370897010149
39.590000000001,-4.2575000000029e-05,30.370897010231,0.00059184140642214,-3.8778637873761e-05,-4.2575000000029e-05,-30.370897010149
39.600000000001,-4.3000000000029e-05,30.370897010231,0.00059226640642214,-3.9203637873761e-05,-4.3000000000029e-05,-30.370897010149
39.610000000001,-4.3425000000029e-05,30.370897010231,0.00059269140642214,-3.962863787376e-05,-4.3425000000029e-05,-30.370897010149
39.620000000001,-4.3850000000029e-05,30.370897010231,0.00059311640642214,-4.005363787376e-05,-4.3850000000029e-05,-30.370897010149
39.630000000001,-4.4275000000029e-05,30.370897010231,0.00059354140642214,-4.047863787376e-05,-4.4275000000029e-05,-30.370897010149
39.640000000001,-4.4700000000029e-05,30.370897010231,0.00059396640642214,-4.090363787376e-05,-4.4700000000029e-05,-30.370897010149
39.650000000001,-4.5125000000029e-05,30.370897010231,0.00059439140642214,-4.132863787376e-05,-4.5125000000029e-05,-30.370897010149
39.660000000001,-4.5550000000029e-05,30.370897010231,0.00059481640642214,-4.175363787376e-05,-4.5550000000029e-05,-30.370897010149
39.670000000001,-4.5975000000029e-05,30.370897010231,0.00059524140642214,-4.217863787376e-05,-4.5975000000029e-05,-30.370897010149
39.680000000001,-4.6400000000029e-05,30.370897010231,0.00059566640642213,-4.260363787376e-05,-4.6400000000029e-05,-30.370897010149
39.690000000001,-4.6825000000029e-05,30.370897010231,0.00059609140642213,-4.302863787376e-05,-4.6825000000029e-05,-30.370897010149
39.700000000001,-4.7250000000029e-05,30.370897010231,0.00059651640642213,-4.345363787376e-05,-4.7250000000029e-05,-30.370897010149
39.710000000001,-4.7675000000028e-05,30.370897010231,0.00059694140642213,-4.387863787376e-05,-4.7675000000028e-05,-30.370897010149
39.720000000001,-4.8100000000028e-05,30.370897010231,0.00059736640642213,-4.430363787376e-05,-4.8100000000028e-05,-30.370897010149
39.730000000001,-4.8525000000028e-05,30.370897010231,0.00059779140642213,-4.4728637873759e-05,-4.8525000000028e-05,-30.370897010149
39.740000000001,-4.8950000000028e-05,30.370897010231,0.00059821640642213,-4.5153637873759e-05,-4.8950000000028e-05,-30.370897010149
39.750000000001,-4.9375000000028e-05,30.370897010231,0.00059864140642213,-4.5578637873759e-05,-4.9375000000028e-05,-30.370897010149
39.760000000001,-4.9800000000028e-05,30.370897010231,0.00059906640642213,-4.6003637873759e-05,-4.9800000000028e-05,-30.370897010149
39.770000000001,-5.0225000000028e-05,30.370897010231,0.00059949140642213,-4.6428637873759e-05,-5.0225000000028e-05,-30.370897010149
39.780000000001,-5.0650000000028e-05,30.370897010231,0.00059991640642213,-4.6853637873759e-05,-5.0650000000028e-05,-30.370897010149
39.790000000001,-5.1075000000028e-05,30.370897010231,0.00060034140642213,-4.7278637873759e-05,-5.1075000000028e-05,-30.370897010149
39.800000000001,-5.1500000000028e-05,30.370897010231,0.00060076640642213,-4.7703637873759e-05,-5.1500000000028e-05,-30.370897010149
39.810000000001,-5.1925000000028e-05,30.370897010231,0.00060119140642213,-4.8128637873759e-05,-5.1925000000028e-05,-30.370897010149
39.820000000001,-5.2350000000027e-05,30.370897010231,0.00060161640642213,-4.8553637873759e-05,-5.2350000000027e-05,-30.370897010149
39.830000000001,-5.2775000000027e-05,30.370897010231,0.00060204140642213,-4.8978637873759e-05,-5.2775000000027e-05,-30.370897010149
39.840000000001,-5.3200000000027e-05,30.370897010231,0.00060246640642213,-4.9403637873759e-05,-5.3200000000027e-05,-30.370897010149
39.850000000001,-5.3625000000027e-05,30.370897010231,0.00060289140642213,-4.9828637873758e-05,-5.3625000000027e-05,-30.370897010149
39.860000000001,-5.4050000000027e-05,30.370897010231,0.00060331640642213,-5.0253637873758e-05,-5.4050000000027e-05,-30.370897010149
39.870000000001,-5.4475000000027e-05,30.370897010231,0.00060374140642213,-5.0678637873758e-05,-5.4475000000027e-05,-30.370897010149
39.880000000001,-5.4900000000027e-05,30.370897010231,0.00060416640642213,-5.1103637873758e-05,-5.4900000000027e-05,-30.370897010149
39.890000000001,-5.5325000000027e-05,30.370897010231,0.00060459140642213,-5.1528637873758e-05,-5.5325000000027e-05,-30.370897010149
39.900000000001,-5.5750000000027e-05,30.370897010231,0.00060501640642213,-5.1953637873758e-05,-5.5750000000027e-05,-30.370897010149
39.910000000001,-5.6175000000027e-05,30.370897010231,0.00060544140642213,-5.2378637873758e-05,-5.6175000000027e-05,-30.370897010149
39.920000000001,-5.6600000000027e-05,30.370897010231,0.00060586640642213,-5.2803637873758e-05,-5.6600000000027e-05,-30.370897010149
39.930000000001,-5.7025000000027e-05,30.370897010231,0.00060629140642213,-5.3228637873758e-05,-5.7025000000027e-05,-30.370897010149
39.940000000001,-5.7450000000026e-05,30.370897010231,0.00060671640642213,-5.3653637873758e-05,-5.7450000000026e-05,-30.370897010149
39.950000000001,-5.7875000000026e-05,30.370897010231,0.00060714140642213,-5.4078637873758e-05,-5.7875000000026e-05,-30.370897010149
39.960000000001,-5.8300000000026e-05,30.370897010231,0.00060756640642213,-5.4503637873758e-05,-5.8300000000026e-05,-30.370897010149
39.970000000001,-5.8725000000026e-05,30.370897010231,0.00060799140642213,-5.4928637873757e-05,-5.8725000000026e-05,-30.370897010149
39.980000000001,-5.9150000000026e-05,30.370897010231,0.00060841640642213,-5.5353637873757e-05,-5.9150000000026e-05,-30.370897010149
39.990000000001,-5.9575000000026e-05,30.370897010231,0.00060884140642213,-5.5778637873757e-05,-5.9575000000026e-05,-30.370897010149
40.000000000001,-5.9999999999973e-05,30.370897010231,0.00060926640642208,-5.6203637873704e-05,-5.9999999999973e-05,-30.370897010149
40.010000000001,-5.9549999999973e-05,26.770897010231,0.00060926640642208,-5.6203637873704e-05,-5.9549999999973e-05,-26.77089701015
40.020000000001,-5.9099999999973e-05,23.170897010232,0.00060926640642208,-5.6203637873704e-05,-5.9099999999973e-05,-23.17089701015
40.030000000001,-5.8649999999973e-05,19.570897010233,0.00060926640642208,-5.6203637873704e-05,-5.8649999999973e-05,-19.570897010151
40.040000000001,-5.8199999999973e-05,15.970897010234,0.00060926640642208,-5.6203637873704e-05,-5.8199999999973e-05,-15.970897010152
40.050000000001,-5.7749999999973e-05,12.370897010234,0.00060926640642208,-5.6203637873704e-05,-5.7749999999973e-05,-12.370897010152
40.060000000001,-5.7299999999973e-05,10.992823919972,0.00060954414728576,-5.592589701002e-05,-5.7299999999973e-05,-10.992823919625
40.070000000001,-5.6849999999973e-05,10.741661129242,0.00060996275193698,-5.5507292358803e-05,-5.6849999999973e-05,-10.741661129359
40.080000000001,-5.6399999999973e-05,10.490498338544,0.00061038135658814,-5.508868770764e-05,-5.6399999999973e-05,-10.490498338661
40.090000000001,-5.5949999999973e-05,10.239335547846,0.0006107999612393,-5.4670083056478e-05,-5.5949999999973e-05,-10.239335547964
40.100000000001,-5.5499999999973e-05,9.9881727571489,0.00061121856589047,-5.4251478405315e-05,-5.5499999999973e-05,-9.9881727572661
40.110000000001,-5.5049999999973e-05,9.7370099664513,0.00061163717054163,-5.3832873754152e-05,-5.5049999999973e-05,-9.7370099665684
40.120000000001,-5.4599999999974e-05,9.4858471757536,0.00061205577519279,-5.341426910299e-05,-5.4599999999974e-05,-9.4858471758708
40.130000000001,-5.4149999999974e-05,9.234684385056,0.00061247437984396,-5.2995664451827e-05,-5.4149999999974e-05,-9.2346843851732
40.140000000001,-5.3699999999974e-05,8.9835215943584,0.00061289298449512,-5.2577059800664e-05,-5.3699999999974e-05,-8.9835215944756
40.150000000001,-5.3249999999974e-05,8.7323588036608,0.00061331158914628,-5.2158455149501e-05,-5.3249999999974e-05,-8.7323588037779
40.160000000001,-5.2799999999974e-05,8.4811960129631,0.00061373019379744,-5.1739850498339e-05,-5.2799999999974e-05,-8.4811960130803
40.170000000001,-5.2349999999974e-05,8.2300332222655,0.00061414879844861,-5.1321245847176e-05,-5.2349999999974e-05,-8.2300332223827
40.180000000001,-5.1899999999974e-05,7.9788704315679,0.00061456740309977,-5.0902641196013e-05,-5.1899999999974e-05,-7.9788704316851
40.190000000001,-5.1449999999974e-05,7.7277076408703,0.00061498600775093,-5.0484036544851e-05,-5.1449999999974e-05,-7.7277076409874
40.200000000001,-5.0999999999974e-05,7.4765448501726,0.00061540461240209,-5.0065431893688e-05,-5.0999999999974e-05,-7.4765448502898
40.210000000001,-5.0549999999974e-05,7.225382059475,0.00061582321705326,-4.9646827242525e-05,-5.0549999999974e-05,-7.2253820595922
40.220000000001,-5.0099999999974e-05,6.9742192687774,0.00061624182170442,-4.9228222591362e-05,-5.0099999999974e-05,-6.9742192688946
40.230000000001,-4.9649999999975e-05,6.7230564780798,0.00061666042635558,-4.88096179402e-05,-4.9649999999975e-05,-6.723056478197
40.240000000001,-4.9199999999975e-05,6.4718936873821,0.00061707903100675,-4.8391013289037e-05,-4.9199999999975e-05,-6.4718936874993
40.250000000001,-4.8749999999975e-05,6.2207308966845,0.00061749763565791,-4.7972408637874e-05,-4.8749999999975e-05,-6.2207308968017
40.260000000001,-4.8299999999975e-05,5.9695681059869,0.00061791624030907,-4.7553803986712e-05,-4.8299999999975e-05,-5.9695681061041
40.270000000001,-4.7849999999975e-05,5.7184053152893,0.00061833484496023,-4.7135199335549e-05,-4.7849999999975e-05,-5.7184053154065
40.280000000001,-4.7399999999975e-05,5.4672425245916,0.0006187534496114,-4.6716594684386e-05,-4.7399999999975e-05,-5.4672425247088
40.290000000001,-4.6949999999975e-05,5.216079733894,0.00061917205426256,-4.6297990033224e-05,-4.6949999999975e-05,-5.2160797340112
40.300000000001,-4.6499999999975e-05,4.9649169431964,0.00061959065891372,-4.5879385382061e-05,-4.6499999999975e-05,-4.9649169433136
40.310000000001,-4.6049999999975e-05,4.7137541524988,0.00062000926356488,-4.5460780730898e-05,-4.6049999999975e-05,-4.713754152616
40.320000000001,-4.5599999999975e-05,4.4625913618011,0.00062042786821605,-4.5042176079735e-05,-4.5599999999975e-05,-4.4625913619183
40.330000000001,-4.5149999999975e-05,4.2114285711035,0.00062084647286721,-4.4623571428573e-05,-4.5149999999975e-05,-4.2114285712207
40.340000000001,-4.4699999999976e-05,3.9602657804059,0.00062126507751837,-4.420496677741e-05,-4.4699999999976e-05,-3.9602657805231
40.350000000001,-4.4249999999976e-05,3.7091029897083,0.00062168368216954,-4.3786362126247e-05,-4.4249999999976e-05,-3.7091029898255
40.360000000001,-4.3799999999976e-05,3.4579401990106,0.0006221022868207,-4.3367757475085e-05,-4.3799999999976e-05,-3.4579401991278
40.370000000001,-4.3349999999976e-05,3.206777408313,0.00062252089147186,-4.2949152823922e-05,-4.3349999999976e-05,-3.2067774084302
40.380000000001,-4.2899999999976e-05,2.9556146176154,0.00062293949612302,-4.2530548172759e-05,-4.2899999999976e-05,-2.9556146177326
40.390000000001,-4.2449999999976e-05,2.7044518269178,0.00062335810077419,-4.2111943521596e-05,-4.2449999999976e-05,-2.704451827035
40.400000000001,-4.1999999999976e-05,2.4532890362202,0.00062377670542535,-4.1693338870434e-05,-4.1999999999976e-05,-2.4532890363373
40.410000000001,-4.1549999999976e-05,2.2021262455225,0.00062419531007651,-4.1274734219271e-05,-4.1549999999976e-05,-2.2021262456397
40.420000000001,-4.1099999999976e-05,1.9509634548249,0.00062461391472767,-4.0856129568108e-05,-4.1099999999976e-05,-1.9509634549421
40.430000000001,-4.0649999999976e-05,1.6998006641273,0.00062503251937884,-4.0437524916946e-05,-4.0649999999976e-05,-1.6998006642444
40.440000000001,-4.0199999999976e-05,1.4486378734296,0.00062545112403,-4.0018920265783e-05,-4.0199999999976e-05,-1.4486378735468
40.450000000001,-3.9749999999977e-05,1.197475082732,0.00062586972868116,-3.960031561462e-05,-3.9749999999977e-05,-1.1974750828492
40.460000000001,-3.9299999999977e-05,0.9463122920344,0.00062628833333232,-3.9181710963458e-05,-3.9299999999977e-05,-0.94631229215158
40.470000000001,-3.8849999999977e-05,0.69514950133678,0.00062670693798349,-3.8763106312295e-05,-3.8849999999977e-05,-0.69514950145396
40.480000000001,-3.8399999999977e-05,0.44398671063915,0.00062712554263465,-3.8344501661132e-05,-3.8399999999977e-05,-0.44398671075634
40.490000000001,-3.7949999999977e-05,0.19282391994153,0.00062754414728581,-3.7925897009969e-05,-3.7949999999977e-05,-0.19282392005872
40.500000000001,-3.7499999999977e-05,0.0583388707561,0.00062796275193698,-3.7507292358807e-05,-3.7499999999977e-05,0.058338870638907
40.510000000001,-3.7049999999977e-05,0.30950166145372,0.00062838135658814,-3.7088687707644e-05,-3.7049999999977e-05,0.30950166133654
40.520000000001,-3.6599999999977e-05,0.56066445215134,0.0006287999612393,-3.6670083056481e-05,-3.6599999999977e-05,0.56066445203416
40.530000000001,-3.6149999999977e-05,0.81182724284897,0.00062921856589046,-3.6251478405319e-05,-3.6149999999977e-05,0.81182724273179
40.540000000001,-3.5699999999977e-05,1.0629900335466,0.00062963717054163,-3.5832873754156e-05,-3.5699999999977e-05,1.0629900334294
40.550000000001,-3.5249999999977e-05,1.3141528242442,0.00063005577519279,-3.5414269102993e-05,-3.5249999999977e-05,1.314152824127
40.56,-3.4799999999978e-05,1.5653156149418,0.00063047437984395,-3.499566445183e-05,-3.4799999999978e-05,1.5653156148247
40.57,-3.4349999999978e-05,1.8164784056395,0.00063089298449511,-3.4577059800668e-05,-3.4349999999978e-05,1.8164784055223
40.58,-3.3899999999978e-05,2.0676411963371,0.00063131158914628,-3.4158455149505e-05,-3.3899999999978e-05,2.0676411962199
40.59,-3.3449999999978e-05,2.3188039870347,0.00063173019379744,-3.3739850498342e-05,-3.3449999999978e-05,2.3188039869175
40.6,-3.2999999999978e-05,2.5699667777323,0.0006321487984486,-3.332124584718e-05,-3.2999999999978e-05,2.5699667776152
40.61,-3.2549999999978e-05,2.82112956843,0.00063256740309977,-3.2902641196017e-05,-3.2549999999978e-05,2.8211295683128
40.62,-3.2099999999978e-05,3.0722923591276,0.00063298600775093,-3.2484036544854e-05,-3.2099999999978e-05,3.0722923590104
40.63,-3.1649999999978e-05,3.3234551498252,0.00063340461240209,-3.2065431893691e-05,-3.1649999999978e-05,3.323455149708
40.64,-3.1199999999978e-05,3.5746179405228,0.00063382321705325,-3.1646827242529e-05,-3.1199999999978e-05,3.5746179404057
40.65,-3.0749999999978e-05,3.8257807312205,0.00063424182170442,-3.1228222591366e-05,-3.0749999999978e-05,3.8257807311033
40.66,-3.0299999999978e-05,4.0769435219181,0.00063466042635558,-3.0809617940203e-05,-3.0299999999978e-05,4.0769435218009
40.67,-2.9849999999978e-05,4.3281063126157,0.00063507903100674,-3.0391013289041e-05,-2.9849999999979e-05,4.3281063124985
40.68,-2.9399999999979e-05,4.5792691033133,0.0006354976356579,-2.9972408637878e-05,-2.9399999999979e-05,4.5792691031961
40.69,-2.8949999999979e-05,4.830431894011,0.00063591624030907,-2.9553803986715e-05,-2.8949999999979e-05,4.8304318938938
40.7,-2.8499999999979e-05,5.0815946847086,0.00063633484496023,-2.9135199335553e-05,-2.8499999999979e-05,5.0815946845914
40.71,-2.8049999999979e-05,5.3327574754062,0.00063675344961139,-2.871659468439e-05,-2.8049999999979e-05,5.332757475289
40.72,-2.7599999999979e-05,5.5839202661038,0.00063717205426256,-2.8297990033227e-05,-2.7599999999979e-05,5.5839202659867
40.73,-2.7149999999979e-05,5.8350830568015,0.00063759065891372,-2.7879385382064e-05,-2.7149999999979e-05,5.8350830566843
40.74,-2.6699999999979e-05,6.0862458474991,0.00063800926356488,-2.7460780730902e-05,-2.6699999999979e-05,6.0862458473819
40.75,-2.6249999999979e-05,6.3374086381967,0.00063842786821604,-2.7042176079739e-05,-2.6249999999979e-05,6.3374086380795
40.76,-2.5799999999979e-05,6.5885714288943,0.00063884647286721,-2.6623571428576e-05,-2.5799999999979e-05,6.5885714287772
40.77,-2.5349999999979e-05,6.839734219592,0.00063926507751837,-2.6204966777414e-05,-2.5349999999979e-05,6.8397342194748
40.78,-2.4899999999979e-05,7.0908970102896,0.00063968368216953,-2.5786362126251e-05,-2.4899999999979e-05,7.0908970101724
40.79,-2.444999999998e-05,7.3420598009872,0.00064010228682069,-2.5367757475088e-05,-2.444999999998e-05,7.34205980087
40.8,-2.399999999998e-05,7.5932225916848,0.00064052089147186,-2.4949152823925e-05,-2.399999999998e-05,7.5932225915676
40.81,-2.354999999998e-05,7.8443853823825,0.00064093949612302,-2.4530548172763e-05,-2.354999999998e-05,7.8443853822653
40.82,-2.309999999998e-05,8.0955481730801,0.00064135810077418,-2.41119435216e-05,-2.309999999998e-05,8.0955481729629
40.83,-2.264999999998e-05,8.3467109637777,0.00064177670542535,-2.3693338870437e-05,-2.264999999998e-05,8.3467109636605
40.84,-2.219999999998e-05,8.5978737544753,0.00064219531007651,-2.3274734219275e-05,-2.219999999998e-05,8.5978737543581
40.85,-2.174999999998e-05,8.849036545173,0.00064261391472767,-2.2856129568112e-05,-2.174999999998e-05,8.8490365450558
40.86,-2.129999999998e-05,9.1001993358706,0.00064303251937883,-2.2437524916949e-05,-2.129999999998e-05,9.1001993357534
40.87,-2.084999999998e-05,9.3513621265682,0.00064345112403,-2.2018920265786e-05,-2.084999999998e-05,9.351362126451
40.88,-2.039999999998e-05,9.6025249172658,0.00064386972868116,-2.1600315614624e-05,-2.039999999998e-05,9.6025249171486
40.89,-1.994999999998e-05,9.8536877079635,0.00064428833333232,-2.1181710963461e-05,-1.994999999998e-05,9.8536877078463
40.9,-1.9499999999981e-05,10.104850498661,0.00064470693798348,-2.0763106312298e-05,-1.9499999999981e-05,10.104850498544
40.91,-1.9049999999981e-05,10.356013289359,0.00064512554263465,-2.0344501661136e-05,-1.9049999999981e-05,10.356013289242
40.92,-1.8599999999981e-05,10.607176080056,0.00064554414728581,-1.9925897009973e-05,-1.8599999999981e-05,10.607176079939
40.93,-1.8149999999981e-05,10.858338870754,0.00064596275193697,-1.950729235881e-05,-1.8149999999981e-05,10.858338870637
40.94,-1.7699999999981e-05,11.109501661452,0.00064638135658813,-1.9088687707648e-05,-1.7699999999981e-05,11.109501661334
40.95,-1.7249999999981e-05,11.360664452149,0.0006467999612393,-1.8670083056485e-05,-1.7249999999981e-05,11.360664452032
40.96,-1.6799999999981e-05,11.611827242847,0.00064721856589046,-1.8251478405322e-05,-1.6799999999981e-05,11.61182724273
40.97,-1.6349999999981e-05,11.862990033544,0.00064763717054162,-1.7832873754159e-05,-1.6349999999981e-05,11.862990033427
40.98,-1.5899999999981e-05,12.114152824242,0.00064805577519279,-1.7414269102997e-05,-1.5899999999981e-05,12.114152824125
40.99,-1.5449999999981e-05,12.36531561494,0.00064847437984395,-1.6995664451834e-05,-1.5449999999981e-05,12.365315614823
41,-1.4999999999981e-05,12.616478405637,0.00064889298449511,-1.6577059800671e-05,-1.4999999999981e-05,12.61647840552
41.01,-1.4549999999982e-05,12.867641196335,0.00064931158914627,-1.6158455149509e-05,-1.4549999999982e-05,12.867641196218
41.02,-1.4099999999982e-05,13.118803987033,0.00064973019379744,-1.5739850498346e-05,-1.4099999999982e-05,13.118803986915
41.03,-1.3649999999982e-05,13.36996677773,0.0006501487984486,-1.5321245847183e-05,-1.3649999999982e-05,13.369966777613
41.04,-1.3199999999982e-05,13.621129568428,0.00065056740309976,-1.490264119602e-05,-1.3199999999982e-05,13.621129568311
41.05,-1.2749999999982e-05,13.872292359125,0.00065098600775092,-1.4484036544858e-05,-1.2749999999982e-05,13.872292359008
41.06,-1.2299999999982e-05,14.123455149823,0.00065140461240209,-1.4065431893695e-05,-1.2299999999982e-05,14.123455149706
41.07,-1.1849999999982e-05,14.374617940521,0.00065182321705325,-1.3646827242532e-05,-1.1849999999982e-05,14.374617940404
41.08,-1.1399999999982e-05,14.625780731218,0.00065224182170441,-1.322822259137e-05,-1.1399999999982e-05,14.625780731101
41.09,-1.0949999999982e-05,14.876943521916,0.00065266042635558,-1.2809617940207e-05,-1.0949999999982e-05,14.876943521799
41.1,-1.0499999999982e-05,15.128106312614,0.00065307903100674,-1.2391013289044e-05,-1.0499999999982e-05,15.128106312496
41.11,-1.0049999999982e-05,15.379269103311,0.0006534976356579,-1.1972408637882e-05,-1.0049999999982e-05,15.379269103194
41.12,-9.5999999999825e-06,15.630431894009,0.00065391624030906,-1.1553803986719e-05,-9.5999999999825e-06,15.630431893892
41.13,-9.1499999999826e-06,15.881594684706,0.00065433484496023,-1.1135199335556e-05,-9.1499999999826e-06,15.881594684589
41.14,-8.6999999999827e-06,16.132757475404,0.00065475344961139,-1.0716594684393e-05,-8.6999999999827e-06,16.132757475287
41.15,-8.2499999999828e-06,16.383920266102,0.00065517205426255,-1.0297990033231e-05,-8.2499999999828e-06,16.383920265985
41.16,-7.7999999999829e-06,16.635083056799,0.00065559065891371,-9.879385382068e-06,-7.7999999999829e-06,16.635083056682
41.17,-7.349999999983e-06,16.886245847497,0.00065600926356488,-9.4607807309053e-06,-7.349999999983e-06,16.88624584738
41.18,-6.8999999999831e-06,17.137408638195,0.00065642786821604,-9.0421760797426e-06,-6.8999999999831e-06,17.137408638077
41.19,-6.4499999999832e-06,17.388571428892,0.0006568464728672,-8.6235714285799e-06,-6.4499999999832e-06,17.388571428775
41.2,-5.9999999999832e-06,17.63973421959,0.00065726507751836,-8.2049667774172e-06,-5.9999999999832e-06,17.639734219473
41.21,-5.5499999999833e-06,17.890897010287,0.00065768368216953,-7.7863621262544e-06,-5.5499999999833e-06,17.89089701017
41.22,-5.0999999999834e-06,18.142059800985,0.00065810228682069,-7.3677574750917e-06,-5.0999999999834e-06,18.142059800868
41.23,-4.6499999999835e-06,18.393222591683,0.00065852089147185,-6.949152823929e-06,-4.6499999999835e-06,18.393222591566
41.24,-4.1999999999836e-06,18.64438538238,0.00065893949612302,-6.5305481727663e-06,-4.1999999999836e-06,18.644385382263
41.25,-3.7499999999837e-06,18.895548173078,0.00065935810077418,-6.1119435216036e-06,-3.7499999999837e-06,18.895548172961
41.26,-3.2999999999838e-06,19.146710963776,0.00065977670542534,-5.6933388704409e-06,-3.2999999999838e-06,19.146710963658
41.27,-2.8499999999839e-06,19.397873754473,0.0006601953100765,-5.2747342192782e-06,-2.8499999999839e-06,19.397873754356
41.28,-2.399999999984e-06,19.649036545171,0.00066061391472767,-4.8561295681155e-06,-2.399999999984e-06,19.649036545054
41.29,-1.949999999984e-06,19.900199335868,0.00066103251937883,-4.4375249169528e-06,-1.949999999984e-06,19.900199335751
41.3,-1.4999999999841e-06,20.151362126566,0.00066145112402999,-4.0189202657901e-06,-1.4999999999841e-06,20.151362126449
41.31,-1.0499999999842e-06,20.402524917264,0.00066186972868115,-3.6003156146274e-06,-1.0499999999842e-06,20.402524917147
41.32,-5.9999999998432e-07,20.653687707961,0.00066228833333232,-3.1817109634647e-06,-5.9999999998432e-07,20.653687707844
41.33,-1.499999999844e-07,20.904850498659,0.00066270693798348,-2.763106312302e-06,-1.499999999844e-07,20.904850498542
41.34,3.000000000155e-07,21.156013289357,0.00066312554263464,-2.3445016611392e-06,3.000000000155e-07,21.156013289239
41.35,7.5000000001541e-07,21.407176080054,0.0006635441472858,-1.9258970099765e-06,7.5000000001541e-07,21.407176079937
41.36,1.2000000000153e-06,21.658338870752,0.00066396275193697,-1.5072923588138e-06,1.2000000000153e-06,21.658338870635
41.37,1.6500000000152e-06,21.909501661449,0.00066438135658813,-1.0886877076511e-06,1.6500000000152e-06,21.909501661332
41.38,2.1000000000151e-06,22.160664452147,0.00066479996123929,-6.7008305648842e-07,2.1000000000151e-06,22.16066445203
41.39,2.5500000000151e-06,22.411827242845,0.00066521856589046,-2.5147840532571e-07,2.5500000000151e-06,22.411827242727
41.4,3.000000000015e-06,22.662990033542,0.00066563717054162,1.6712624583699e-07,3.000000000015e-06,22.662990033425
41.41,3.4500000000149e-06,22.91415282424,0.00066605577519278,5.857308969997e-07,3.4500000000149e-06,22.914152824123
41.42,3.9000000000148e-06,23.165315614938,0.00066647437984394,1.0043355481624e-06,3.9000000000148e-06,23.16531561482
41.43,4.3500000000147e-06,23.416478405635,0.00066689298449511,1.4229401993251e-06,4.3500000000147e-06,23.416478405518
41.44,4.8000000000146e-06,23.667641196333,0.00066731158914627,1.8415448504878e-06,4.8000000000146e-06,23.667641196216
41.45,5.2500000000145e-06,23.91880398703,0.00066773019379743,2.2601495016505e-06,5.2500000000145e-06,23.918803986913
41.46,5.7000000000144e-06,24.169966777728,0.00066814879844859,2.6787541528132e-06,5.7000000000144e-06,24.169966777611
41.47,6.1500000000143e-06,24.421129568426,0.00066856740309976,3.097358803976e-06,6.1500000000143e-06,24.421129568308
41.48,6.6000000000142e-06,24.672292359123,0.00066898600775092,3.5159634551387e-06,6.6000000000142e-06,24.672292359006
41.49,7.0500000000142e-06,24.923455149821,0.00066940461240208,3.9345681063014e-06,7.0500000000142e-06,24.923455149704
41.5,7.5000000000141e-06,25.174617940519,0.00066982321705325,4.3531727574641e-06,7.5000000000141e-06,25.174617940401
41.51,7.950000000014e-06,25.425780731216,0.00067024182170441,4.7717774086268e-06,7.950000000014e-06,25.425780731099
41.52,8.4000000000139e-06,25.676943521914,0.00067066042635557,5.1903820597895e-06,8.4000000000139e-06,25.676943521797
41.53,8.8500000000138e-06,25.928106312611,0.00067107903100673,5.6089867109522e-06,8.8500000000138e-06,25.928106312494
41.54,9.3000000000137e-06,26.179269103309,0.0006714976356579,6.0275913621149e-06,9.3000000000137e-06,26.179269103192
41.55,9.7500000000136e-06,26.430431894007,0.00067191624030906,6.4461960132776e-06,9.7500000000136e-06,26.430431893889
41.56,1.0200000000014e-05,26.681594684704,0.00067233484496022,6.8648006644403e-06,1.0200000000014e-05,26.681594684587
41.57,1.0650000000013e-05,26.932757475402,0.00067275344961138,7.283405315603e-06,1.0650000000013e-05,26.932757475285
41.58,1.1100000000013e-05,27.1839202661,0.00067317205426255,7.7020099667657e-06,1.1100000000013e-05,27.183920265982
41.59,1.1550000000013e-05,27.435083056797,0.00067359065891371,8.1206146179284e-06,1.1550000000013e-05,27.43508305668
41.6,1.2000000000013e-05,27.686245847495,0.00067400926356487,8.5392192690911e-06,1.2000000000013e-05,27.686245847378
41.61,1.2450000000013e-05,27.937408638192,0.00067442786821604,8.9578239202539e-06,1.2450000000013e-05,27.937408638075
41.62,1.2900000000013e-05,28.18857142889,0.0006748464728672,9.3764285714166e-06,1.2900000000013e-05,28.188571428773
41.63,1.3350000000013e-05,28.439734219588,0.00067526507751836,9.7950332225793e-06,1.3350000000013e-05,28.43973421947
41.64,1.3800000000013e-05,28.690897010285,0.00067568368216952,1.0213637873742e-05,1.3800000000013e-05,28.690897010168
41.65,1.4250000000013e-05,28.942059800983,0.00067610228682069,1.0632242524905e-05,1.4250000000013e-05,28.942059800866
41.66,1.4700000000013e-05,29.193222591681,0.00067652089147185,1.1050847176067e-05,1.4700000000013e-05,29.193222591563
41.67,1.5150000000013e-05,29.444385382378,0.00067693949612301,1.146945182723e-05,1.5150000000013e-05,29.444385382261
41.68,1.5600000000012e-05,29.695548173076,0.00067735810077417,1.1888056478393e-05,1.5600000000012e-05,29.695548172959
41.69,1.6050000000012e-05,29.946710963773,0.00067777670542534,1.2306661129556e-05,1.6050000000012e-05,29.946710963656
41.7,1.6500000000012e-05,30.197873754471,0.0006781953100765,1.2725265780718e-05,1.6500000000012e-05,30.197873754354
41.71,1.6950000000012e-05,30.449036545169,0.00067861391472766,1.3143870431881e-05,1.6950000000012e-05,30.449036545051
41.72,1.7400000000012e-05,30.700199335866,0.00067903251937883,1.3562475083044e-05,1.7400000000012e-05,30.700199335749
41.73,1.7850000000012e-05,30.700199335866,0.00067948251937883,1.4012475083049e-05,1.7850000000012e-05,30.700199335704
41.74,1.8300000000012e-05,30.700199335866,0.00067993251937883,1.4462475083049e-05,1.8300000000012e-05,30.700199335704
41.75,1.8750000000012e-05,30.700199335866,0.00068038251937883,1.4912475083049e-05,1.8750000000012e-05,30.700199335704
41.76,1.9200000000012e-05,30.700199335866,0.00068083251937883,1.5362475083049e-05,1.9200000000012e-05,30.700199335704
41.77,1.9650000000012e-05,30.700199335866,0.00068128251937883,1.5812475083049e-05,1.9650000000012e-05,30.700199335704
41.78,2.0100000000012e-05,30.700199335866,0.00068173251937883,1.6262475083049e-05,2.0100000000012e-05,30.700199335704
41.79,2.0550000000011e-05,30.700199335866,0.00068218251937883,1.6712475083049e-05,2.0550000000011e-05,30.700199335704
41.8,2.1000000000011e-05,30.700199335866,0.00068263251937883,1.7162475083049e-05,2.1000000000011e-05,30.700199335704
41.81,2.1450000000011e-05,30.700199335866,0.00068308251937883,1.7612475083049e-05,2.1450000000011e-05,30.700199335704
41.82,2.1900000000011e-05,30.700199335866,0.00068353251937883,1.8062475083048e-05,2.1900000000011e-05,30.700199335704
41.83,2.2350000000011e-05,30.700199335866,0.00068398251937883,1.8512475083048e-05,2.2350000000011e-05,30.700199335704
41.84,2.2800000000011e-05,30.700199335866,0.00068443251937883,1.8962475083048e-05,2.2800000000011e-05,30.700199335704
41.85,2.3250000000011e-05,30.700199335866,0.00068488251937883,1.9412475083048e-05,2.3250000000011e-05,30.700199335704
41.86,2.3700000000011e-05,30.700199335866,0.00068533251937883,1.9862475083048e-05,2.3700000000011e-05,30.700199335704
41.87,2.4150000000011e-05,30.700199335866,0.00068578251937883,2.0312475083048e-05,2.4150000000011e-05,30.700199335704
41.88,2.4600000000011e-05,30.700199335866,0.00068623251937883,2.0762475083048e-05,2.4600000000011e-05,30.700199335704
41.89,2.5050000000011e-05,30.700199335866,0.00068668251937883,2.1212475083048e-05,2.5050000000011e-05,30.700199335704
41.9,2.550000000001e-05,30.700199335866,0.00068713251937883,2.1662475083048e-05,2.550000000001e-05,30.700199335704
41.91,2.595000000001e-05,30.700199335866,0.00068758251937883,2.2112475083048e-05,2.595000000001e-05,30.700199335704
41.92,2.640000000001e-05,30.700199335866,0.00068803251937883,2.2562475083048e-05,2.640000000001e-05,30.700199335704
41.93,2.685000000001e-05,30.700199335866,0.00068848251937883,2.3012475083047e-05,2.685000000001e-05,30.700199335704
41.94,2.730000000001e-05,30.700199335866,0.00068893251937883,2.3462475083047e-05,2.730000000001e-05,30.700199335704
41.95,2.775000000001e-05,30.700199335866,0.00068938251937883,2.3912475083047e-05,2.775000000001e-05,30.700199335704
41.96,2.820000000001e-05,30.700199335866,0.00068983251937883,2.4362475083047e-05,2.820000000001e-05,30.700199335704
41.97,2.865000000001e-05,30.700199335866,0.00069028251937883,2.4812475083047e-05,2.865000000001e-05,30.700199335704
41.98,2.910000000001e-05,30.700199335866,0.00069073251937883,2.5262475083047e-05,2.910000000001e-05,30.700199335704
41.99,2.955000000001e-05,30.700199335866,0.00069118251937883,2.5712475083047e-05,2.955000000001e-05,30.700199335704
42,3.000000000001e-05,30.700199335866,0.00069163251937883,2.6162475083047e-05,3.000000000001e-05,30.700199335704
42.01,3.045000000001e-05,30.700199335866,0.00069208251937883,2.6612475083047e-05,3.0450000000009e-05,30.700199335704
42.02,3.0900000000009e-05,30.700199335866,0.00069253251937883,2.7062475083047e-05,3.0900000000009e-05,30.700199335704
42.03,3.1350000000009e-05,30.700199335866,0.00069298251937883,2.7512475083047e-05,3.1350000000009e-05,30.700199335704
42.04,3.1800000000009e-05,30.700199335866,0.00069343251937883,2.7962475083046e-05,3.1800000000009e-05,30.700199335704
42.05,3.2250000000009e-05,30.700199335866,0.00069388251937883,2.8412475083046e-05,3.2250000000009e-05,30.700199335704
42.06,3.2700000000009e-05,30.700199335866,0.00069433251937883,2.8862475083046e-05,3.2700000000009e-05,30.700199335704
42.07,3.3150000000009e-05,30.700199335866,0.00069478251937883,2.9312475083046e-05,3.3150000000009e-05,30.700199335704
42.08,3.3600000000009e-05,30.700199335866,0.00069523251937883,2.9762475083046e-05,3.3600000000009e-05,30.700199335704
42.09,3.4050000000009e-05,30.700199335866,0.00069568251937883,3.0212475083046e-05,3.4050000000009e-05,30.700199335704
42.1,3.4500000000009e-05,30.700199335866,0.00069613251937883,3.0662475083046e-05,3.4500000000009e-05,30.700199335704
42.11,3.4950000000009e-05,30.700199335866,0.00069658251937883,3.1112475083046e-05,3.4950000000009e-05,30.700199335704
42.12,3.5400000000009e-05,30.700199335866,0.00069703251937883,3.1562475083046e-05,3.5400000000009e-05,30.700199335704
42.13,3.5850000000008e-05,30.700199335866,0.00069748251937883,3.2012475083046e-05,3.5850000000008e-05,30.700199335704
42.14,3.6300000000008e-05,30.700199335866,0.00069793251937883,3.2462475083046e-05,3.6300000000008e-05,30.700199335704
42.15,3.6750000000008e-05,30.700199335866,0.00069838251937883,3.2912475083045e-05,3.6750000000008e-05,30.700199335704
42.16,3.7200000000008e-05,30.700199335866,0.00069883251937883,3.3362475083045e-05,3.7200000000008e-05,30.700199335704
42.17,3.7650000000008e-05,30.700199335866,0.00069928251937883,3.3812475083045e-05,3.7650000000008e-05,30.700199335704
42.18,3.8100000000008e-05,30.700199335866,0.00069973251937883,3.4262475083045e-05,3.8100000000008e-05,30.700199335704
42.19,3.8550000000008e-05,30.700199335866,0.00070018251937883,3.4712475083045e-05,3.8550000000008e-05,30.700199335704
42.2,3.9000000000008e-05,30.700199335866,0.00070063251937883,3.5162475083045e-05,3.9000000000008e-05,30.700199335704
42.21,3.9450000000008e-05,30.700199335866,0.00070108251937883,3.5612475083045e-05,3.9450000000008e-05,30.700199335704
42.22,3.9900000000008e-05,30.700199335866,0.00070153251937883,3.6062475083045e-05,3.9900000000008e-05,30.700199335704
42.23,4.0350000000008e-05,30.700199335866,0.00070198251937883,3.6512475083045e-05,4.0350000000008e-05,30.700199335704
42.24,4.0800000000007e-05,30.700199335866,0.00070243251937883,3.6962475083045e-05,4.0800000000007e-05,30.700199335704
42.25,4.1250000000007e-05,30.700199335866,0.00070288251937883,3.7412475083045e-05,4.1250000000007e-05,30.700199335704
42.26,4.1700000000007e-05,30.700199335866,0.00070333251937883,3.7862475083044e-05,4.1700000000007e-05,30.700199335704
42.27,4.2150000000007e-05,30.700199335866,0.00070378251937883,3.8312475083044e-05,4.2150000000007e-05,30.700199335704
42.28,4.2600000000007e-05,30.700199335866,0.00070423251937883,3.8762475083044e-05,4.2600000000007e-05,30.700199335704
42.29,4.3050000000007e-05,30.700199335866,0.00070468251937883,3.9212475083044e-05,4.3050000000007e-05,30.700199335704
42.3,4.3500000000007e-05,30.700199335866,0.00070513251937883,3.9662475083044e-05,4.3500000000007e-05,30.700199335704
42.31,4.3950000000007e-05,30.700199335866,0.00070558251937883,4.0112475083044e-05,4.3950000000007e-05,30.700199335704
42.32,4.4400000000007e-05,30.700199335866,0.00070603251937883,4.0562475083044e-05,4.4400000000007e-05,30.700199335704
42.33,4.4850000000007e-05,30.700199335866,0.00070648251937883,4.1012475083044e-05,4.4850000000007e-05,30.700199335704
42.34,4.5300000000007e-05,30.700199335866,0.00070693251937883,4.1462475083044e-05,4.5300000000007e-05,30.700199335704
42.35,4.5750000000006e-05,30.700199335866,0.00070738251937883,4.1912475083044e-05,4.5750000000006e-05,30.700199335704
42.36,4.6200000000006e-05,30.700199335866,0.00070783251937883,4.2362475083044e-05,4.6200000000006e-05,30.700199335704
42.37,4.6650000000006e-05,30.700199335866,0.00070828251937883,4.2812475083043e-05,4.6650000000006e-05,30.700199335704
42.38,4.7100000000006e-05,30.700199335866,0.00070873251937882,4.3262475083043e-05,4.7100000000006e-05,30.700199335704
42.39,4.7550000000006e-05,30.700199335866,0.00070918251937882,4.3712475083043e-05,4.7550000000006e-05,30.700199335704
42.4,4.8000000000006e-05,30.700199335866,0.00070963251937882,4.4162475083043e-05,4.8000000000006e-05,30.700199335704
42.41,4.8450000000006e-05,30.700199335866,0.00071008251937882,4.4612475083043e-05,4.8450000000006e-05,30.700199335704
42.42,4.8900000000006e-05,30.700199335866,0.00071053251937882,4.5062475083043e-05,4.8900000000006e-05,30.700199335704
42.43,4.9350000000006e-05,30.700199335866,0.00071098251937882,4.5512475083043e-05,4.9350000000006e-05,30.700199335704
42.44,4.9800000000006e-05,30.700199335866,0.00071143251937882,4.5962475083043e-05,4.9800000000006e-05,30.700199335704
42.45,5.0250000000006e-05,30.700199335866,0.00071188251937882,4.6412475083043e-05,5.0250000000006e-05,30.700199335704
42.46,5.0700000000005e-05,30.700199335866,0.00071233251937882,4.6862475083043e-05,5.0700000000006e-05,30.700199335704
42.47,5.1150000000005e-05,30.700199335866,0.00071278251937882,4.7312475083043e-05,5.1150000000005e-05,30.700199335704
42.48,5.1600000000005e-05,30.700199335866,0.00071323251937882,4.7762475083043e-05,5.1600000000005e-05,30.700199335704
42.49,5.2050000000005e-05,30.700199335866,0.00071368251937882,4.8212475083042e-05,5.2050000000005e-05,30.700199335704
42.5,5.2500000000005e-05,30.700199335866,0.00071413251937882,4.8662475083042e-05,5.2500000000005e-05,30.700199335704
42.51,5.2950000000005e-05,30.700199335866,0.00071458251937882,4.9112475083042e-05,5.2950000000005e-05,30.700199335704
42.52,5.3400000000005e-05,30.700199335866,0.00071503251937882,4.9562475083042e-05,5.3400000000005e-05,30.700199335704
42.53,5.3850000000005e-05,30.700199335866,0.00071548251937882,5.0012475083042e-05,5.3850000000005e-05,30.700199335704
42.54,5.4300000000005e-05,30.700199335866,0.00071593251937882,5.0462475083042e-05,5.4300000000005e-05,30.700199335704
42.55,5.4750000000005e-05,30.700199335866,0.00071638251937882,5.0912475083042e-05,5.4750000000005e-05,30.700199335704
42.56,5.5200000000005e-05,30.700199335866,0.00071683251937882,5.1362475083042e-05,5.5200000000005e-05,30.700199335704
42.57,5.5650000000004e-05,30.700199335866,0.00071728251937882,5.1812475083042e-05,5.5650000000004e-05,30.700199335704
42.58,5.6100000000004e-05,30.700199335866,0.00071773251937882,5.2262475083042e-05,5.6100000000004e-05,30.700199335704
42.59,5.6550000000004e-05,30.700199335866,0.00071818251937882,5.2712475083042e-05,5.6550000000004e-05,30.700199335704
42.6,5.7000000000004e-05,30.700199335866,0.00071863251937882,5.3162475083041e-05,5.7000000000004e-05,30.700199335704
42.61,5.7450000000004e-05,30.700199335866,0.00071908251937882,5.3612475083041e-05,5.7450000000004e-05,30.700199335704
42.62,5.7900000000004e-05,30.700199335866,0.00071953251937882,5.4062475083041e-05,5.7900000000004e-05,30.700199335704
42.63,5.8350000000004e-05,30.700199335866,0.00071998251937882,5.4512475083041e-05,5.8350000000004e-05,30.700199335704
42.64,5.8800000000004e-05,30.700199335866,0.00072043251937882,5.4962475083041e-05,5.8800000000004e-05,30.700199335704
42.65,5.9250000000004e-05,30.700199335866,0.00072088251937882,5.5412475083041e-05,5.9250000000004e-05,30.700199335704
42.66,5.9700000000004e-05,30.700199335866,0.00072133251937882,5.5862475083041e-05,5.9700000000004e-05,30.700199335704
42.67,6.0150000000004e-05,30.700199335866,0.00072178251937882,5.6312475083041e-05,6.0150000000004e-05,30.700199335704
42.68,6.0600000000004e-05,30.700199335866,0.00072223251937882,5.6762475083041e-05,6.0600000000004e-05,30.700199335704
42.69,6.1050000000003e-05,30.700199335866,0.00072268251937882,5.7212475083041e-05,6.1050000000003e-05,30.700199335704
42.7,6.1500000000003e-05,30.700199335866,0.00072313251937882,5.7662475083041e-05,6.1500000000003e-05,30.700199335704
42.71,6.1950000000003e-05,30.700199335866,0.00072358251937882,5.811247508304e-05,6.1950000000003e-05,30.700199335704
42.72,6.2400000000003e-05,30.700199335866,0.00072403251937882,5.856247508304e-05,6.2400000000003e-05,30.700199335704
42.73,6.2850000000003e-05,30.700199335866,0.00072448251937882,5.901247508304e-05,6.2850000000003e-05,30.700199335704
42.74,6.3300000000003e-05,30.700199335866,0.00072493251937882,5.946247508304e-05,6.3300000000003e-05,30.700199335704
42.75,6.3750000000003e-05,30.700199335866,0.00072538251937882,5.991247508304e-05,6.3750000000003e-05,30.700199335704
42.76,6.4200000000003e-05,30.700199335866,0.00072583251937882,6.036247508304e-05,6.4200000000003e-05,30.700199335704
42.77,6.4650000000003e-05,30.700199335866,0.00072628251937882,6.081247508304e-05,6.4650000000003e-05,30.700199335704
42.78,6.5100000000003e-05,30.700199335866,0.00072673251937882,6.126247508304e-05,6.5100000000003e-05,30.700199335704
42.79,6.5550000000003e-05,30.700199335866,0.00072718251937882,6.171247508304e-05,6.5550000000003e-05,30.700199335704
42.8,6.6000000000002e-05,30.700199335866,0.00072763251937882,6.216247508304e-05,6.6000000000002e-05,30.700199335704
42.81,6.6450000000002e-05,30.700199335866,0.00072808251937882,6.261247508304e-05,6.6450000000002e-05,30.700199335704
42.82,6.6900000000002e-05,30.700199335866,0.00072853251937882,6.3062475083039e-05,6.6900000000002e-05,30.700199335704
42.83,6.7350000000002e-05,30.700199335866,0.00072898251937882,6.3512475083039e-05,6.7350000000002e-05,30.700199335704
42.84,6.7800000000002e-05,30.700199335866,0.00072943251937882,6.3962475083039e-05,6.7800000000002e-05,30.700199335704
42.85,6.8250000000002e-05,30.700199335866,0.00072988251937882,6.4412475083039e-05,6.8250000000002e-05,30.700199335704
42.86,6.8700000000002e-05,30.700199335866,0.00073033251937882,6.4862475083039e-05,6.8700000000002e-05,30.700199335704
42.87,6.9150000000002e-05,30.700199335866,0.00073078251937882,6.5312475083039e-05,6.9150000000002e-05,30.700199335704
42.88,6.9600000000002e-05,30.700199335866,0.00073123251937882,6.5762475083039e-05,6.9600000000002e-05,30.700199335704
42.89,7.0050000000002e-05,30.700199335866,0.00073168251937882,6.6212475083039e-05,7.0050000000002e-05,30.700199335704
42.9,7.0500000000002e-05,30.700199335866,0.00073213251937882,6.6662475083039e-05,7.0500000000002e-05,30.700199335704
42.91,7.0950000000001e-05,30.700199335866,0.00073258251937882,6.7112475083039e-05,7.0950000000001e-05,30.700199335704
42.92,7.1400000000001e-05,30.700199335866,0.00073303251937882,6.7562475083039e-05,7.1400000000001e-05,30.700199335704
42.93,7.1850000000001e-05,30.700199335866,0.00073348251937882,6.8012475083038e-05,7.1850000000001e-05,30.700199335704
42.94,7.2300000000001e-05,30.700199335866,0.00073393251937882,6.8462475083038e-05,7.2300000000001e-05,30.700199335704
42.95,7.2750000000001e-05,30.700199335866,0.00073438251937882,6.8912475083038e-05,7.2750000000001e-05,30.700199335704
42.96,7.3200000000001e-05,30.700199335866,0.00073483251937882,6.9362475083038e-05,7.3200000000001e-05,30.700199335704
42.97,7.3650000000001e-05,30.700199335866,0.00073528251937882,6.9812475083038e-05,7.3650000000001e-05,30.700199335704
42.98,7.4100000000001e-05,30.700199335866,0.00073573251937882,7.0262475083038e-05,7.4100000000001e-05,30.700199335704
42.99,7.4550000000001e-05,30.700199335866,0.00073618251937882,7.0712475083038e-05,7.4550000000001e-05,30.700199335704
43,7.5000000000001e-05,30.700199335866,0.00073663251937882,7.1162475083038e-05,7.5000000000001e-05,30.700199335704
43.01,7.5450000000001e-05,30.700199335866,0.00073708251937882,7.1612475083038e-05,7.5450000000001e-05,30.700199335704
43.02,7.59e-05,30.700199335866,0.00073753251937882,7.2062475083038e-05,7.59e-05,30.700199335704
43.03,7.635e-05,30.700199335866,0.00073798251937882,7.2512475083038e-05,7.635e-05,30.700199335704
43.04,7.68e-05,30.700199335866,0.00073843251937882,7.2962475083038e-05,7.68e-05,30.700199335704
43.05,7.725e-05,30.700199335866,0.00073888251937882,7.3412475083037e-05,7.725e-05,30.700199335704
43.06,7.77e-05,30.700199335866,0.00073933251937882,7.3862475083037e-05,7.77e-05,30.700199335704
43.07,7.815e-05,30.700199335866,0.00073978251937882,7.4312475083037e-05,7.815e-05,30.700199335704
43.08,7.86e-05,30.700199335866,0.00074023251937882,7.4762475083037e-05,7.86e-05,30.700199335704
43.09,7.905e-05,30.700199335866,0.00074068251937882,7.5212475083037e-05,7.905e-05,30.700199335704
43.1,7.95e-05,30.700199335866,0.00074113251937882,7.5662475083037e-05,7.95e-05,30.700199335704
43.11,7.995e-05,30.700199335866,0.00074158251937882,7.6112475083037e-05,7.995e-05,30.700199335704
43.12,8.04e-05,30.700199335866,0.00074203251937882,7.6562475083037e-05,8.04e-05,30.700199335704
43.13,8.0849999999999e-05,30.700199335866,0.00074248251937882,7.7012475083037e-05,8.0849999999999e-05,30.700199335704
43.14,8.1299999999999e-05,30.700199335866,0.00074293251937882,7.7462475083037e-05,8.1299999999999e-05,30.700199335704
43.15,8.1749999999999e-05,30.700199335866,0.00074338251937882,7.7912475083037e-05,8.1749999999999e-05,30.700199335704
43.16,8.2199999999999e-05,30.700199335866,0.00074383251937882,7.8362475083036e-05,8.2199999999999e-05,30.700199335704
43.17,8.2649999999999e-05,30.700199335866,0.00074428251937882,7.8812475083036e-05,8.2649999999999e-05,30.700199335704
43.18,8.3099999999999e-05,30.700199335866,0.00074473251937882,7.9262475083036e-05,8.3099999999999e-05,30.700199335704
43.19,8.3549999999999e-05,30.700199335866,0.00074518251937882,7.9712475083036e-05,8.3549999999999e-05,30.700199335704
43.2,8.3999999999999e-05,30.700199335866,0.00074563251937882,8.0162475083036e-05,8.3999999999999e-05,30.700199335704
43.21,8.4449999999999e-05,30.700199335866,0.00074608251937882,8.0612475083036e-05,8.4449999999999e-05,30.700199335704
43.22,8.4899999999999e-05,30.700199335866,0.00074653251937882,8.1062475083036e-05,8.4899999999999e-05,30.700199335704
43.23,8.5349999999999e-05,30.700199335866,0.00074698251937882,8.1512475083036e-05,8.5349999999999e-05,30.700199335704
43.24,8.5799999999999e-05,30.700199335866,0.00074743251937882,8.1962475083036e-05,8.5799999999999e-05,30.700199335704
43.25,8.6249999999998e-05,30.700199335866,0.00074788251937882,8.2412475083036e-05,8.6249999999998e-05,30.700199335704
43.26,8.6699999999998e-05,30.700199335866,0.00074833251937882,8.2862475083036e-05,8.6699999999998e-05,30.700199335704
43.27,8.7149999999998e-05,30.700199335866,0.00074878251937882,8.3312475083035e-05,8.7149999999998e-05,30.700199335704
43.28,8.7599999999998e-05,30.700199335866,0.00074923251937882,8.3762475083035e-05,8.7599999999998e-05,30.700199335704
43.29,8.8049999999998e-05,30.700199335866,0.00074968251937882,8.4212475083035e-05,8.8049999999998e-05,30.700199335704
43.3,8.8499999999998e-05,30.700199335866,0.00075013251937882,8.4662475083035e-05,8.8499999999998e-05,30.700199335704
43.31,8.8949999999998e-05,30.700199335866,0.00075058251937882,8.5112475083035e-05,8.8949999999998e-05,30.700199335704
43.32,8.9399999999998e-05,30.700199335866,0.00075103251937882,8.5562475083035e-05,8.9399999999998e-05,30.700199335704
43.33,8.9849999999998e-05,30.700199335866,0.00075148251937882,8.6012475083035e-05,8.9849999999998e-05,30.700199335704
43.34,9.0299999999998e-05,30.700199335866,0.00075193251937882,8.6462475083035e-05,9.0299999999998e-05,30.700199335704
43.35,9.0749999999998e-05,30.700199335866,0.00075238251937882,8.6912475083035e-05,9.0749999999998e-05,30.700199335704
43.36,9.1199999999997e-05,30.700199335866,0.00075283251937882,8.7362475083035e-05,9.1199999999997e-05,30.700199335704
43.37,9.1649999999997e-05,30.700199335866,0.00075328251937882,8.7812475083035e-05,9.1649999999997e-05,30.700199335704
43.38,9.2099999999997e-05,30.700199335866,0.00075373251937882,8.8262475083034e-05,9.2099999999997e-05,30.700199335704
43.39,9.2549999999997e-05,30.700199335866,0.00075418251937882,8.8712475083034e-05,9.2549999999997e-05,30.700199335704
43.4,9.2999999999997e-05,30.700199335866,0.00075463251937882,8.9162475083034e-05,9.2999999999997e-05,30.700199335704
43.41,9.3449999999997e-05,30.700199335866,0.00075508251937882,8.9612475083034e-05,9.3449999999997e-05,30.700199335704
43.42,9.3899999999997e-05,30.700199335866,0.00075553251937882,9.0062475083034e-05,9.3899999999997e-05,30.700199335704
43.43,9.4349999999997e-05,30.700199335866,0.00075598251937882,9.0512475083034e-05,9.4349999999997e-05,30.700199335704
43.44,9.4799999999997e-05,30.700199335866,0.00075643251937882,9.0962475083034e-05,9.4799999999997e-05,30.700199335704
43.45,9.5249999999997e-05,30.700199335866,0.00075688251937882,9.1412475083034e-05,9.5249999999997e-05,30.700199335704
43.46,9.5699999999997e-05,30.700199335866,0.00075733251937882,9.1862475083034e-05,9.5699999999997e-05,30.700199335704
43.47,9.6149999999996e-05,30.700199335866,0.00075778251937882,9.2312475083034e-05,9.6149999999996e-05,30.700199335704
43.48,9.6599999999996e-05,30.700199335866,0.00075823251937882,9.2762475083034e-05,9.6599999999996e-05,30.700199335704
43.49,9.7049999999996e-05,30.700199335866,0.00075868251937882,9.3212475083033e-05,9.7049999999996e-05,30.700199335704
43.5,9.7499999999996e-05,30.700199335866,0.00075913251937882,9.3662475083033e-05,9.7499999999996e-05,30.700199335704
43.51,9.7949999999996e-05,30.700199335866,0.00075958251937882,9.4112475083033e-05,9.7949999999996e-05,30.700199335704
43.52,9.8399999999996e-05,30.700199335866,0.00076003251937882,9.4562475083033e-05,9.8399999999996e-05,30.700199335704
43.53,9.8849999999996e-05,30.700199335866,0.00076048251937882,9.5012475083033e-05,9.8849999999996e-05,30.700199335704
43.54,9.9299999999996e-05,30.700199335866,0.00076093251937882,9.5462475083033e-05,9.9299999999996e-05,30.700199335704
43.55,9.9749999999996e-05,30.700199335866,0.00076138251937882,9.5912475083033e-05,9.9749999999996e-05,30.700199335704
43.56,0.0001002,30.700199335866,0.00076183251937882,9.6362475083033e-05,0.0001002,30.700199335704
43.57,0.00010065,30.700199335866,0.00076228251937882,9.6812475083033e-05,0.00010065,30.700199335704
43.58,0.0001011,30.700199335866,0.00076273251937882,9.7262475083033e-05,0.0001011,30.700199335704
43.59,0.00010155,30.700199335866,0.00076318251937882,9.7712475083033e-05,0.00010155,30.700199335704
43.6,0.000102,30.700199335866,0.00076363251937882,9.8162475083033e-05,0.000102,30.700199335704
43.61,0.00010245,30.700199335866,0.00076408251937882,9.8612475083032e-05,0.00010245,30.700199335704
43.62,0.0001029,30.700199335866,0.00076453251937882,9.9062475083032e-05,0.0001029,30.700199335704
43.63,0.00010335,30.700199335866,0.00076498251937882,9.9512475083032e-05,0.00010335,30.700199335704
43.64,0.00010379999999999,30.700199335866,0.00076543251937882,9.9962475083032e-05,0.00010379999999999,30.700199335704
43.65,0.00010424999999999,30.700199335866,0.00076588251937881,0.00010041247508303,0.00010424999999999,30.700199335704
43.66,0.00010469999999999,30.700199335866,0.00076633251937881,0.00010086247508303,0.00010469999999999,30.700199335704
43.67,0.00010514999999999,30.700199335866,0.00076678251937881,0.00010131247508303,0.00010514999999999,30.700199335704
43.68,0.00010559999999999,30.700199335866,0.00076723251937881,0.00010176247508303,0.00010559999999999,30.700199335704
43.69,0.00010604999999999,30.700199335866,0.00076768251937881,0.00010221247508303,0.00010604999999999,30.700199335704
43.7,0.00010649999999999,30.700199335866,0.00076813251937881,0.00010266247508303,0.00010649999999999,30.700199335704
43.71,0.00010694999999999,30.700199335866,0.00076858251937881,0.00010311247508303,0.00010694999999999,30.700199335704
43.72,0.00010739999999999,30.700199335866,0.00076903251937881,0.00010356247508303,0.00010739999999999,30.700199335704
43.73,0.00010784999999999,30.700199335866,0.00076948251937881,0.00010401247508303,0.00010784999999999,30.700199335704
43.74,0.00010829999999999,30.700199335866,0.00076993251937881,0.00010446247508303,0.00010829999999999,30.700199335704
43.75,0.00010874999999999,30.700199335866,0.00077038251937881,0.00010491247508303,0.00010874999999999,30.700199335704
43.76,0.00010919999999999,30.700199335866,0.00077083251937881,0.00010536247508303,0.00010919999999999,30.700199335704
43.77,0.00010964999999999,30.700199335866,0.00077128251937881,0.00010581247508303,0.00010964999999999,30.700199335704
43.78,0.00011009999999999,30.700199335866,0.00077173251937881,0.00010626247508303,0.00011009999999999,30.700199335704
43.79,0.00011054999999999,30.700199335866,0.00077218251937881,0.00010671247508303,0.00011054999999999,30.700199335704
43.8,0.00011099999999999,30.700199335866,0.00077263251937881,0.00010716247508303,0.00011099999999999,30.700199335704
43.81,0.00011144999999999,30.700199335866,0.00077308251937881,0.00010761247508303,0.00011144999999999,30.700199335704
43.82,0.00011189999999999,30.700199335866,0.00077353251937881,0.00010806247508303,0.00011189999999999,30.700199335704
43.83,0.00011234999999999,30.700199335866,0.00077398251937881,0.00010851247508303,0.00011234999999999,30.700199335704
43.84,0.00011279999999999,30.700199335866,0.00077443251937881,0.00010896247508303,0.00011279999999999,30.700199335704
43.85,0.00011324999999999,30.700199335866,0.00077488251937881,0.00010941247508303,0.00011324999999999,30.700199335704
43.86,0.00011369999999999,30.700199335866,0.00077533251937881,0.00010986247508303,0.00011369999999999,30.700199335704
43.87,0.00011414999999999,30.700199335866,0.00077578251937881,0.00011031247508303,0.00011414999999999,30.700199335704
43.88,0.00011459999999999,30.700199335866,0.00077623251937881,0.00011076247508303,0.00011459999999999,30.700199335704
43.89,0.00011504999999999,30.700199335866,0.00077668251937881,0.00011121247508303,0.00011504999999999,30.700199335704
43.9,0.00011549999999999,30.700199335866,0.00077713251937881,0.00011166247508303,0.00011549999999999,30.700199335704
43.91,0.00011594999999999,30.700199335866,0.00077758251937881,0.00011211247508303,0.00011594999999999,30.700199335704
43.92,0.00011639999999999,30.700199335866,0.00077803251937881,0.00011256247508303,0.00011639999999999,30.700199335704
43.93,0.00011684999999999,30.700199335866,0.00077848251937881,0.00011301247508303,0.00011684999999999,30.700199335704
43.94,0.00011729999999999,30.700199335866,0.00077893251937881,0.00011346247508303,0.00011729999999999,30.700199335704
43.95,0.00011774999999999,30.700199335866,0.00077938251937881,0.00011391247508303,0.00011774999999999,30.700199335704
43.96,0.00011819999999999,30.700199335866,0.00077983251937881,0.00011436247508303,0.00011819999999999,30.700199335704
43.97,0.00011864999999999,30.700199335866,0.00078028251937881,0.00011481247508303,0.00011864999999999,30.700199335704
43.98,0.00011909999999999,30.700199335866,0.00078073251937881,0.00011526247508303,0.00011909999999999,30.700199335704
43.99,0.00011954999999999,30.700199335866,0.00078118251937881,0.00011571247508303,0.00011954999999999,30.700199335704
44,0.00011999999999999,30.700199335866,0.00078163251937881,0.00011616247508303,0.00011999999999999,30.700199335704
